LAMMPS data file via write_data, version 22 Jul 2025, timestep = 5000000, units = real

800 atoms
2 atom types
796 bonds
2 bond types
1584 angles
3 angle types
2340 dihedrals
3 dihedral types

-9.726808355140111 9.726808355140111 xlo xhi
-9.726808355140111 9.726808355140111 ylo yhi
-9.726808355140111 9.726808355140111 zlo zhi

Masses

1 12.011
2 1.008

Pair Coeffs # lj/charmm/coul/long/opt

1 0.1078 3.39771 0.1078 3.39771
2 0.0208 2.60018 0.0208 2.60018

Bond Coeffs # harmonic

1 375.92 1.097
2 232.52 1.538

Angle Coeffs # harmonic

1 38.96 107.58
2 46.816 109.8
3 64.888 111.51

Dihedral Coeffs # fourier

1 1 0.12 3 0
2 2 0.08 3 0 0.08 3 0
3 3 0.13 3 0 0.29 2 180 0.11 1 0

Atoms # full

53 1 1 -0.01749348945760578 -5.919716023445824 -2.5863359536495985 -1.9298425223480988 0 0 0
54 1 1 -0.01692943930153312 -4.896494288164872 -3.48832190606114 -2.674110937820034 0 0 0
55 1 2 0.008677576545781426 -6.754712787754844 -3.2238306102545824 -1.6139218763120002 0 0 0
56 1 2 0.008677576545781426 -6.25293176861228 -1.8317014770040503 -2.6529736016338568 0 0 0
57 1 2 0.008533887833788023 -3.9274805445608107 -3.0075990841232336 -2.856708496272552 0 0 0
58 1 2 0.008533887833788023 -4.653874075724874 -4.366275250046079 -2.0627535970616835 0 0 0
59 1 1 -0.01749348945760578 -5.5888717808922825 -4.026321394026887 -3.9284392964099872 0 0 0
61 1 2 0.008677576545781426 -6.526007626441357 -4.56962250531002 -3.7551635760611033 0 0 0
62 1 2 0.008677576545781426 -5.798949830839656 -3.1641065215064694 -4.573325068606156 0 0 0
447 3 1 -0.01749348945760578 -4.088714557903441 -2.1991647541236867 -7.8646876329112905 0 0 0
60 1 1 -0.01692943930153312 -4.659543494278895 -4.797571754860981 -4.821355304147233 0 0 0
64 1 2 0.008533887833788023 -4.153760245043899 -5.604793484608104 -4.277295301175356 0 0 0
65 1 1 -0.01749348945760578 -5.28374423710407 -5.275523241412895 -6.245707601196432 0 0 0
63 1 2 0.008533887833788023 -3.80931080141921 -4.142862431764806 -5.049136416997074 0 0 0
67 1 2 0.008677576545781426 -5.754008640304324 -4.399806369528878 -6.709815456163589 0 0 0
275 2 2 0.008533887833788023 -1.7432475593154635 -2.8210801887809893 -5.0915785544716705 0 1 0
68 1 2 0.008677576545781426 -4.549239975807249 -5.586775539871786 -6.998734867601386 0 0 0
66 1 1 -0.01692943930153312 -6.323631954546733 -6.3586655554091305 -6.061701296317338 0 0 0
450 3 2 0.008677576545781426 -3.53128044437758 -2.8406642266338027 -7.171023595003266 0 0 0
71 1 1 -0.01749348945760578 -7.184475580780628 -6.599453686084173 -7.377573068682539 0 0 0
70 1 2 0.008533887833788023 -7.078315050958981 -6.2002643902759464 -5.281453000026561 0 0 0
173 1 1 -0.01749348945760578 -2.107584373367616 -7.451118927014072 -1.542353338659881 0 1 -1
69 1 2 0.008533887833788023 -5.716204053923497 -7.239438072016824 -5.819428925659461 0 0 0
74 1 2 0.008677576545781426 -6.547614210598009 -6.761597048720892 -8.255947665568593 0 0 0
232 2 2 0.008677576545781426 -5.8234797969052945 -6.694422162643006 -2.1510043868306337 1 1 0
176 1 2 0.008677576545781426 -2.924379947701042 -7.575495565099349 -0.8206883438966575 0 1 -1
175 1 2 0.008677576545781426 -2.4965466077292744 -6.8990468827455835 -2.4068463474657067 0 1 -1
448 3 1 -0.01692943930153312 -5.259226223668604 -1.4131288096556869 -7.136970890950714 0 0 0
174 1 1 -0.01692943930153312 -1.0404146931238571 -6.594966200218488 -0.8306142937441745 0 1 -1
452 3 2 0.008533887833788023 -6.069577462567567 -2.123238129207186 -6.930814949079755 0 0 0
683 4 1 -0.01749348945760578 -1.3838273854342713 -7.790974045252243 -6.572537665221192 0 0 0
678 4 1 -0.01692943930153312 -1.1821933394725583 -6.753562959241909 -7.661255051247565 0 0 0
272 2 1 -0.01692943930153312 -0.8843718777612821 -2.139648462637804 -5.129100673175133 0 1 0
525 3 1 -0.01749348945760578 -8.818194308146465 -2.5839839426371967 -8.407582133610223 0 0 0
224 2 1 -0.01692943930153312 -6.780810286087304 -8.462141876318727 -1.5685941012676867 1 1 0
73 1 2 0.008677576545781426 -7.630894435282546 -5.66216057884415 -7.731995678009478 0 0 0
72 1 1 -0.01692943930153312 -8.339921287287673 -7.720748259244668 -7.263174515365968 0 0 0
455 3 2 0.008677576545781426 -4.325440331581427 -1.5024276118231903 -5.156400740749749 0 0 0
271 2 1 -0.01749348945760578 -0.5995305365430514 -1.4165074178768133 -3.807218206806451 0 1 0
682 4 2 0.008533887833788023 -1.4246441901344333 -5.7668825822370025 -7.247608985678736 0 0 0
458 3 2 0.008533887833788023 -6.758066803574291 -0.47830660048672335 -4.735522183760964 0 0 0
181 1 2 0.008677576545781426 -1.7228126244529918 -4.548668070097623 -1.1557105621247654 0 1 -1
237 2 2 0.008677576545781426 -8.20810949821642 -5.512261180680239 -2.1449148570663725 1 1 0
227 2 2 0.008533887833788023 -7.545930480423284 -8.24236164249313 -2.3233871990310826 1 1 0
449 3 2 0.008677576545781426 -4.570658790661305 -2.806643761715944 -8.640653115132926 0 0 0
522 3 2 0.008677576545781426 -8.442945971865925 -2.424687398464947 -5.623002672097894 0 0 0
442 3 1 -0.01692943930153312 -3.0473767369248606 -1.2860173487842648 -8.631780556993906 0 0 0
235 2 1 -0.01749348945760578 -8.469805620138839 -5.817967562085043 -1.1243838025239334 1 1 0
229 2 1 -0.01749348945760578 -6.169264941560391 -7.106987160774427 -1.1951554204751567 1 1 0
171 1 2 0.008533887833788023 -0.552143007044549 -8.559694106811904 -2.613235929474155 0 1 -1
168 1 1 -0.01692943930153312 -1.502626243834527 -8.739916433965742 -2.0960068398416523 0 1 -1
685 4 2 0.008677576545781426 -1.0716780588262669 -7.3384703470426675 -5.623207602541638 0 0 0
75 1 2 0.008533887833788023 -8.037138010625599 -8.67467982514102 -6.813995681690837 0 0 0
51 1 2 0.008533887833788023 -4.476772139677146 -1.057321071719473 -1.3957784807440419 0 0 0
77 1 1 -0.01749348945760578 -9.00036495779245 -7.9804352816185045 -8.67828542683762 0 0 0
172 1 2 0.008533887833788023 -2.053074797096074 -9.15314090186641 -2.9502178510934316 0 1 -1
48 1 1 -0.01692943930153312 -5.144908873642184 -1.7635951047450762 -0.8876503380730068 0 0 0
528 3 2 0.008677576545781426 -7.935935623758174 -3.0781919785674496 -7.982372963118551 0 0 0
282 2 2 0.008533887833788023 -0.06377282968990627 -4.463226126058488 -4.085860156050137 0 1 0
521 3 2 0.008677576545781426 -9.354987050232847 -1.0866070990671162 -6.354133291793848 0 0 0
519 3 1 -0.01749348945760578 -9.425154941056478 -2.125661198940019 -6.009361806603058 0 0 0
230 2 1 -0.01692943930153312 -7.136255011383808 -6.19739856835759 -0.44184546963530913 1 1 0
238 2 2 0.008677576545781426 -9.024321364537133 -6.758608649036144 -1.229888915084139 1 1 0
677 4 1 -0.01749348945760578 -1.9899856333810853 -7.028557384658152 -8.927865691834965 0 0 0
273 2 2 0.008677576545781426 -0.36960653193179027 -2.1427591961082726 -3.0178404996137482 0 1 0
527 3 2 0.008677576545781426 -8.529373880974067 -1.5259698464452143 -8.432358182480346 0 0 0
178 1 2 0.008533887833788023 -0.10991160296991076 -6.54826781194013 -1.4097580852725038 0 1 -1
276 2 2 0.008533887833788023 -1.1703865078136833 -1.361134710150937 -5.847109444976955 0 1 0
228 2 2 0.008533887833788023 -7.287335699258476 -9.089746864115947 -0.8249755479575924 1 1 0
49 1 2 0.008677576545781426 -7.077504520881487 -0.6772744285130479 -0.5583486121015966 0 0 0
52 1 2 0.008533887833788023 -4.5223608374111635 -2.4447580466760126 -0.29445939544578437 0 0 0
686 4 2 0.008677576545781426 -2.475841706108821 -7.813716133902373 -6.4704988326655695 0 0 0
681 4 2 0.008533887833788023 -0.10702504903048649 -6.749587545842134 -7.879018769771811 0 0 0
226 2 2 0.008677576545781426 -5.30858693171248 -8.858500293904282 -3.083769444720171 1 1 0
684 4 1 -0.01692943930153312 -0.697955434612128 -9.110617302610168 -6.824023575093118 0 0 0
231 2 2 0.008677576545781426 -5.295259120713284 -7.2646783715965535 -0.5512049717425587 1 1 0
446 3 2 0.008533887833788023 -3.496766497666054 -0.4877139481199926 -9.23525833832166 0 0 0
399 2 2 0.1204413007164695 -4.335866993316106 -9.449624814108182 -7.966219433390368 1 0 1
451 3 2 0.008533887833788023 -5.64795918337877 -0.6249852587216118 -7.793583319766023 0 0 0
453 3 1 -0.01749348945760578 -4.826976301867082 -0.7585972401016541 -5.787750659991956 0 0 0
516 3 2 0.008677576545781426 -9.249295262300912 -1.4668235435954156 -3.0243696723321722 0 0 0
76 1 2 0.008533887833788023 -9.141953950043085 -7.37446571662618 -6.599655903947321 0 0 0
47 1 1 -0.01749348945760578 -6.196325030273001 -1.0400620029862786 -0.014903863375050008 0 0 0
679 4 2 0.008677576545781426 -3.0593923848445144 -7.217823143557887 -8.773035084910974 0 0 0
223 2 1 -0.01749348945760578 -5.591520599075958 -9.340613830019613 -2.139873298840312 1 1 0
179 1 1 -0.01749348945760578 -1.5825535792312024 -5.191390666512831 -0.2778381943575088 0 1 -1
444 3 2 0.008677576545781426 -1.4434447091133364 -2.817883143713959 -8.963957053707654 0 0 0
80 1 2 0.008677576545781426 -8.22093285272992 -8.380997472943944 -9.338179395507966 0 0 0
400 2 2 0.1204413007164695 -4.702865556131337 -9.690090340278513 -6.170098003496742 1 0 1
190 1 2 0.008533887833788023 -2.2611856636982655 -2.2905268037350845 -0.2997769399303074 0 1 -1
441 3 1 -0.01749348945760578 -2.12187287671778 -2.1758053131414776 -9.539191587743131 0 0 0
274 2 2 0.008677576545781426 -1.4859132958110433 -0.8570698879086898 -3.4835240480896177 0 1 0
687 4 2 0.008533887833788023 -1.1893396194222543 -9.437542681996106 -7.748731850524776 0 0 0
236 2 1 -0.01692943930153312 -9.355947161022858 -4.76630279002409 -0.38394577442945277 1 1 0
437 3 2 0.008677576545781426 -0.08261783894642782 -0.38944843505546345 -9.042752386805686 0 0 0
676 4 2 0.008533887833788023 -2.065396576364165 -4.935276569034177 -9.544032299234738 0 0 0
680 4 2 0.008677576545781426 -1.5799773424607295 -7.984036402291637 -9.277689981586708 0 0 0
170 1 2 0.008677576545781426 -0.4729990329842053 -9.24834251309396 -0.3243548270737069 0 1 -1
279 2 2 0.008677576545781426 -0.09554582960316615 -3.6988109152148336 -6.473035088633611 0 1 0
529 3 2 0.008533887833788023 -9.523195458714913 -4.15342959594264 -9.611956759050198 0 0 0
225 2 2 0.008677576545781426 -4.718871426369002 -9.328201531749011 -1.4752273465279284 1 1 0
456 3 2 0.008677576545781426 -3.972287571714487 -0.1373755133808654 -6.082734392015154 0 0 0
445 3 2 0.008533887833788023 -2.5043907073869356 -0.7435974362814388 -7.847962394525724 0 0 0
234 2 2 0.008533887833788023 -6.56102435564673 -5.271219635845895 -0.3204898881419673 1 1 0
691 4 2 0.008677576545781426 -0.30933603075958693 -9.715060795835408 -4.844966544749037 0 0 0
79 1 2 0.008677576545781426 -9.2457610003825 -7.02318089594686 -9.154593623271303 0 0 0
240 2 2 0.008533887833788023 -8.972311932994154 -3.74053892089312 -0.4476358770118072 1 1 0
357 2 2 0.008677576545781426 0.9215363112848856 -8.93524714504277 -9.62686703341439 0 0 1
78 1 1 -0.01692943930153312 9.267841194081392 -8.994504344509705 -8.63770721060497 -1 0 0
520 3 1 -0.01692943930153312 9.634184490068655 -2.9061546318806046 -7.236372285974194 -1 0 0
736 4 2 0.008533887833788023 9.648544587404366 -9.451979252725415 -2.04088622106062 0 0 0
267 2 2 0.008677576545781426 0.14539695084232385 -0.03205963895265995 -1.7300246705858564 0 1 0
515 3 2 0.008677576545781426 9.33527697676232 -0.14793107753898482 -3.937573843209755 -1 0 0
96 1 1 -0.01692943930153312 3.4406460291090504 -5.510570068432732 -9.373828659418908 -1 0 0
86 1 2 0.008677576545781426 7.8530342981059285 -7.339121071994119 -8.15000382306379 -1 0 0
510 3 2 0.008677576545781426 9.20507502848369 -0.6102790508524727 -0.6591687677587892 -1 0 0
260 2 1 -0.01692943930153312 2.3274162928671807 -0.07869933458612444 -1.7717505875873982 0 1 0
277 2 1 -0.01749348945760578 0.2681399754538081 -3.068110994407183 -5.65244095941103 0 1 0
765 4 2 0.008533887833788023 4.832058535000348 -0.11336552941397038 -8.078141883762015 0 0 0
763 4 2 0.008677576545781426 2.759897320299981 -0.49059349348850567 -6.660714225231633 0 0 0
262 2 2 0.008677576545781426 1.5925864464214392 -1.6859032540377168 -0.6223061755698254 0 1 0
253 2 1 -0.01749348945760578 3.7917393110104047 -3.2754843040461417 -0.18561402585494768 0 1 0
514 3 1 -0.01692943930153312 8.99729079343436 -2.1397025790051574 -4.774573956244852 -1 0 0
512 3 2 0.008533887833788023 7.201735717270079 -0.9171504079253232 -2.8678731421662365 -1 0 0
292 2 2 0.008677576545781426 3.7354500322278206 -7.1421507161532265 -5.319700328135953 0 1 0
621 4 2 0.008533887833788023 3.6923706627274946 -7.227503838361228 -0.6754996089653762 -1 0 -1
750 4 1 -0.01692943930153312 5.517054696576194 -3.140740333889446 -4.7286664616992695 0 0 0
688 4 2 0.008533887833788023 0.3320223628972876 -8.836573434915588 -7.0837729626042885 0 0 0
517 3 2 0.008533887833788023 8.992657591057949 -3.208637970632136 -4.528037779192005 -1 0 0
278 2 1 -0.01692943930153312 0.8308378428393208 -4.02525663978195 -4.545510987415804 0 1 0
760 4 2 0.008533887833788023 5.172220804069294 -0.4047902422995069 -4.63477764777231 0 0 0
759 4 2 0.008533887833788023 3.6849077083672253 -1.3712569605613538 -4.388994636788226 0 0 0
243 2 2 0.008677576545781426 8.518837478249893 -4.332472463477843 -1.824565317887549 0 1 0
748 4 2 0.008533887833788023 7.284829692129698 -4.729045463181617 -3.497082738743406 0 0 0
507 3 1 -0.01749348945760578 8.30767547149905 -0.2985219066624385 -1.207718162352922 -1 0 0
112 1 2 0.008533887833788023 4.35318192921485 -2.6992600395190607 -9.59504468145263 -1 0 0
741 4 2 0.008533887833788023 7.172734357604316 -7.290109070224419 -2.4495071160496735 0 0 0
288 2 2 0.008533887833788023 0.9190938870052534 -6.895534370773722 -4.1826577192986205 0 1 0
89 1 1 -0.01749348945760578 5.405726123300969 -8.394749246350226 -7.676422820703245 -1 0 0
92 1 2 0.008677576545781426 5.5673025007213734 -8.265675954838272 -6.599084590414724 -1 0 0
84 1 1 -0.01692943930153312 6.625338964844669 -9.119899996842028 -8.273805648230475 -1 0 0
744 4 1 -0.01692943930153312 6.556102953374964 -5.291398484072026 -4.0938583431412905 0 0 0
287 2 2 0.008533887833788023 2.3475505583802168 -6.249755343611852 -3.2958521824937534 0 1 0
93 1 2 0.008533887833788023 5.8954534531933795 -6.395398526011061 -8.039024830104195 -1 0 0
749 4 1 -0.01749348945760578 6.131810787116146 -4.4689756558612 -5.263713140328845 0 0 0
247 2 1 -0.01749348945760578 6.212837338758137 -4.0272756499184466 -0.3554276946946988 0 1 0
523 3 2 0.008533887833788023 9.558754786601785 -3.9750825034335184 -7.001577707206845 -1 0 0
742 4 2 0.008533887833788023 8.796009938421996 -6.864149393635094 -2.883987910485809 0 0 0
266 2 1 -0.01692943930153312 0.5182443735885744 -0.32153423767578104 -3.8273548879232484 0 1 0
752 4 2 0.008677576545781426 5.433408681844419 -4.974077545672251 -5.942337799631057 0 0 0
257 2 2 0.008533887833788023 4.06151332268046 -1.2111935931689093 -0.0426310192897148 0 1 0
97 1 2 0.008677576545781426 2.926375521843589 -7.211330043568453 -8.253363427217906 -1 0 0
758 4 2 0.008677576545781426 4.284112157581918 -2.7076550876550733 -6.4346254689327 0 0 0
502 3 1 -0.01692943930153312 7.016930824088085 -0.17606034888729027 -0.36328862850793797 -1 0 0
90 1 1 -0.01692943930153312 5.126040608083493 -7.079150139383385 -8.41838254606129 -1 0 0
255 2 2 0.008677576545781426 3.5787401895750026 -4.079037352500378 -0.9014063353596242 0 1 0
756 4 1 -0.01692943930153312 4.352504614398091 -0.9306403385838564 -5.139725055159334 0 0 0
249 2 2 0.008677576545781426 6.115267556958319 -3.4024182505710554 -1.2517860125213858 0 1 0
745 4 2 0.008677576545781426 8.222696724745138 -6.2459612769804655 -5.084735432787912 0 0 0
747 4 2 0.008533887833788023 5.643745423148141 -5.395736336389733 -3.493739851075616 0 0 0
511 3 2 0.008533887833788023 7.996015844651112 -2.243790398624548 -2.0170049732437834 -1 0 0
244 2 2 0.008677576545781426 8.222737001462114 -5.850556322293844 -0.9436101133970336 0 1 0
508 3 1 -0.01692943930153312 8.147251529450319 -1.2300264334923785 -2.4079458325139544 -1 0 0
754 4 2 0.008533887833788023 6.3478013445186505 -2.6463735758972433 -4.2101241088283 0 0 0
294 2 2 0.008533887833788023 2.039924806635197 -9.097473582468632 -3.784426986560036 0 1 0
259 2 1 -0.01749348945760578 2.369056716063728 -1.5535990576629164 -1.3858599356585906 0 1 0
254 2 1 -0.01692943930153312 3.7940857754470567 -1.868082614771379 -0.8795324594101661 0 1 0
753 4 2 0.008533887833788023 4.704016262403815 -3.4470341755014697 -4.0589073417236605 0 0 0
751 4 2 0.008677576545781426 6.987428813867133 -4.309556937746385 -5.93149138505275 0 0 0
98 1 2 0.008677576545781426 3.587718561310629 -6.031574426114303 -7.204819475000939 -1 0 0
104 1 2 0.008677576545781426 2.647919915649913 -3.834721135184214 -8.22965300337435 -1 0 0
513 3 1 -0.01749348945760578 9.272338264159114 -1.1577096540624208 -3.513532945134326 -1 0 0
737 4 1 -0.01749348945760578 8.191196199876412 -8.827976691245627 -3.578936736361552 0 0 0
101 1 1 -0.01749348945760578 2.259133854613122 -4.48670657587026 -9.021602651807397 -1 0 0
746 4 2 0.008677576545781426 6.745771215967586 -7.2349047716613235 -5.19055869516071 0 0 0
524 3 2 0.008533887833788023 8.606974483035955 -2.633516556643767 -7.508276041748155 -1 0 0
258 2 2 0.008533887833788023 4.420547745089264 -1.7265609669152102 -1.7688813730981998 0 1 0
289 2 1 -0.01749348945760578 2.7605024461004586 -7.4800712797788655 -4.947260495935856 0 1 0
85 1 2 0.008677576545781426 8.130403743163402 -8.514281816566447 -6.890204622133517 -1 0 0
738 4 1 -0.01692943930153312 7.901138875009689 -7.370962571765876 -3.2657877114232665 0 0 0
283 2 1 -0.01749348945760578 1.8326789044061815 -5.0806790420823855 -5.0903515549411935 0 1 0
280 2 2 0.008677576545781426 1.003977581436887 -2.3343159001771676 -6.003884536053173 0 1 0
284 2 1 -0.01692943930153312 1.8930845800048068 -6.4008236482459795 -4.28279881961498 0 1 0
743 4 1 -0.01749348945760578 7.33808517870083 -6.586893382422522 -4.53278199249804 0 0 0
281 2 2 0.008533887833788023 1.347800113590166 -3.366858704785777 -3.8365067431256294 0 1 0
250 2 2 0.008677576545781426 5.856513758933996 -5.018595028727039 -0.6616026856463701 0 1 0
739 4 2 0.008677576545781426 8.825673726860945 -8.81315406332377 -4.473723435324208 0 0 0
91 1 2 0.008677576545781426 4.542162017387087 -8.990508997692285 -7.99697222617739 -1 0 0
293 2 2 0.008533887833788023 3.3479479996451076 -8.173227211729618 -3.1058222488394875 0 1 0
755 4 1 -0.01749348945760578 5.007483526127736 -2.1360531584442164 -5.840125901164766 0 0 0
291 2 2 0.008677576545781426 2.2145315069226417 -7.783087378026247 -5.849214824585641 0 1 0
290 2 1 -0.01692943930153312 3.0123597298478746 -8.654579871477623 -4.032701276508324 0 1 0
261 2 2 0.008677576545781426 2.147077687946803 -2.1935273841911966 -2.2487861028161333 0 1 0
241 2 1 -0.01749348945760578 8.59055169938761 -4.821732793549918 -0.845327740487182 0 1 0
518 3 2 0.008533887833788023 7.972385746919027 -2.0260487852376645 -5.14884233616854 -1 0 0
83 1 1 -0.01749348945760578 8.009804799758953 -8.410776055077955 -7.975638683215516 -1 0 0
285 2 2 0.008677576545781426 1.5309710794763074 -5.344633016640889 -6.111490716365333 0 1 0
95 1 1 -0.01749348945760578 3.7245154364453494 -6.4602737906159255 -8.205283501515607 -1 0 0
103 1 2 0.008677576545781426 1.41285337203351 -5.065508799722016 -8.631445973656097 -1 0 0
757 4 2 0.008677576545781426 5.859877276000912 -1.8553463239988988 -6.471040644932664 0 0 0
286 2 2 0.008677576545781426 2.8427280734261426 -4.683688502129965 -5.250426861145425 0 1 0
295 2 1 -0.01749348945760578 4.150741884086768 -9.6783070661273 -4.495232666963189 0 1 0
740 4 2 0.008677576545781426 7.343937959138646 -9.343228948568825 -4.048077831260132 0 0 0
81 1 2 0.008533887833788023 9.032090796798464 -9.157006535534407 -9.696687608171617 -1 0 0
270 2 2 0.008533887833788023 1.4437755030260107 -0.7763636212658334 -4.201449308270441 0 1 0
87 1 2 0.008533887833788023 6.5878897145092274 -9.29641495684704 -9.355870675116385 -1 0 0
298 2 2 0.008677576545781426 5.115018563978545 -9.155617246200288 -4.475481127871085 0 1 0
94 1 2 0.008533887833788023 5.295462996919392 -7.2349006188759875 -9.490978648673646 -1 0 0
620 4 2 0.008677576545781426 1.3601843261697617 -7.624899098660274 -0.10299130537642576 -1 0 -1
660 4 1 -0.01692943930153312 -1.9531637639772965 -6.018780349424287 4.904373140880745 0 0 -1
664 4 2 0.008533887833788023 -1.1577631429330637 -5.271439911805381 4.793717066542985 0 0 -1
659 4 1 -0.01749348945760578 -2.360783908149136 -6.520466790373364 3.4960407216406626 0 0 -1
18 1 1 -0.01692943930153312 -6.9541457343663815 -7.985985339654513 6.149315940891286 0 0 0
665 4 1 -0.01749348945760578 -3.1536165307800363 -5.394575944493105 5.712346782795118 0 0 -1
667 4 2 0.008677576545781426 -3.6116746967000664 -4.566130412687822 5.158013678490276 0 0 -1
668 4 2 0.008677576545781426 -3.903307165036721 -6.195374839974009 5.722827034780304 0 0 -1
662 4 2 0.008677576545781426 -2.865142231923505 -5.683656396765512 2.997246617488022 0 0 -1
663 4 2 0.008533887833788023 -1.569769329503771 -6.891298885655869 5.447644581987689 0 0 -1
23 1 1 -0.01749348945760578 -7.90599450467481 -6.934786837659668 6.772732636158324 0 0 0
669 4 2 0.008533887833788023 -1.9047122450711944 -4.19879023758969 6.947189856780664 0 0 -1
666 4 1 -0.01692943930153312 -2.76081026008801 -4.863031835905888 7.118374052427974 0 0 -1
670 4 2 0.008533887833788023 -3.5426526209065408 -4.206619575782401 7.519958625765344 0 0 -1
661 4 2 0.008677576545781426 -1.4838294320109426 -6.706613637091692 2.8638037078388674 0 0 -1
654 4 1 -0.01692943930153312 -3.1428695557214574 -7.844872864309268 3.4487574111145083 0 0 -1
657 4 2 0.008533887833788023 -4.098470590937593 -7.587878907971607 3.9222607132709513 0 0 -1
29 1 1 -0.01749348945760578 -8.66816875102509 -5.87944614178233 4.401557149971026 0 0 0
22 1 2 0.008533887833788023 -7.546943129072558 -8.883143844371927 5.932240400166927 0 0 0
30 1 1 -0.01692943930153312 -8.17167003584153 -4.407061060796057 4.51201284001788 0 0 0
658 4 2 0.008533887833788023 -2.6618189845053646 -8.605955335609284 4.075469926391321 0 0 -1
24 1 1 -0.01692943930153312 -9.048967850234286 -6.54829079453647 5.763609191242683 0 0 0
532 3 1 -0.01692943930153312 -7.798449553651641 -1.4591666123982403 8.258086600743347 0 0 -1
539 3 2 0.008677576545781426 -6.008806713480193 -2.287479061249546 7.395352632464796 0 0 -1
537 3 1 -0.01749348945760578 -6.612271212588633 -1.3906138225926323 7.208573123914132 0 0 -1
656 4 2 0.008677576545781426 -4.019913430062553 -7.417183569563241 1.5793217852884514 0 0 -1
653 4 1 -0.01749348945760578 -3.4518396322717946 -8.258764106511501 1.9946031988305233 0 0 -1
655 4 2 0.008677576545781426 -2.5146811314599624 -8.400544622769756 1.4422835759559938 0 0 -1
34 1 2 0.008533887833788023 -7.23639305493316 -4.405667983036952 5.085318956278721 0 0 0
21 1 2 0.008533887833788023 -6.590316190013475 -7.498038380280191 5.2366491751420305 0 0 0
17 1 1 -0.01749348945760578 -5.775232534045183 -8.336585514967023 7.0830822567355085 0 0 0
35 1 1 -0.01749348945760578 -7.920478474617364 -3.6805704123270306 3.168086872631841 0 0 0
36 1 1 -0.01692943930153312 -7.89486196079995 -2.1668091195992956 3.3557658744630814 0 0 0
25 1 2 0.008677576545781426 -8.467617626784131 -7.299858412065058 7.641482488374454 0 0 0
531 3 1 -0.01749348945760578 -8.260702988154572 -2.9530537202862694 8.460290771099345 0 0 -1
46 1 2 0.008533887833788023 -6.939367339669425 -2.8868232251857986 0.8013977366612579 0 0 0
185 1 1 -0.01749348945760578 -1.2637455021134372 -3.272471738233368 1.3838973830970485 0 1 -1
40 1 2 0.008533887833788023 -7.062506554356658 -1.7968196448638531 3.9670896758517937 0 0 0
37 1 2 0.008677576545781426 -6.936372152494709 -4.072968520753004 2.8835119024090776 0 0 0
31 1 2 0.008677576545781426 -7.965398415245283 -6.584479721815674 3.9406176460613995 0 0 0
187 1 2 0.008677576545781426 -2.1567662626861335 -3.669419182994109 1.8822658963939336 0 1 -1
26 1 2 0.008677576545781426 -7.29127981227296 -6.036775545866517 6.911030895571471 0 0 0
39 1 2 0.008533887833788023 -8.794847485809619 -1.8366974406916157 3.889129984981066 0 0 0
540 3 2 0.008677576545781426 -7.07860299779667 -1.4980108130004641 6.221443310141529 0 0 -1
42 1 1 -0.01692943930153312 -6.5826072097681525 -1.9128995394716242 1.158636740739194 0 0 0
436 3 1 -0.01692943930153312 -1.4367267121608336 -1.3293018325240382 8.835630724648148 0 0 -1
534 3 2 0.008677576545781426 -8.776554881849885 -3.2342386432745185 7.5338694950274 0 0 -1
671 4 1 -0.01749348945760578 -2.4493868546679405 -6.0708174557882195 8.043327614128309 0 0 -1
674 4 2 0.008677576545781426 -1.7322293948608962 -6.768826730052492 7.594002451084258 0 0 -1
20 1 2 0.008677576545781426 -5.015166346138242 -7.553003418137737 7.191356339547802 0 0 0
38 1 2 0.008677576545781426 -8.79141983419097 -3.8178941839074785 2.5153794281777238 0 0 0
41 1 1 -0.01749348945760578 -7.73920732311295 -1.3305544398957458 1.985929210588509 0 0 0
19 1 2 0.008677576545781426 -6.082361979210862 -8.399913463694501 8.134312883398305 0 0 0
188 1 2 0.008677576545781426 -0.5916268337781805 -2.9717591454407453 2.197071815820644 0 1 -1
183 1 2 0.008533887833788023 -0.35250377285724355 -5.1022634699463305 1.523421809731838 0 1 -1
673 4 2 0.008677576545781426 -3.424916880811022 -6.570909545217958 8.084240577016796 0 0 -1
45 1 2 0.008533887833788023 -5.746433654838 -2.136963318206246 1.8324572419170284 0 0 0
43 1 2 0.008677576545781426 -8.680178278583183 -1.3903233178587229 1.4251925889928927 0 0 0
33 1 2 0.008533887833788023 -8.926865429262918 -3.8621687924620396 5.091837322087352 0 0 0
636 4 1 -0.01692943930153312 -9.271920601007713 -8.713725977775077 1.858016109462456 0 0 -1
640 4 2 0.008533887833788023 -9.190657175103432 -7.636941365440857 2.051292914908572 0 0 -1
193 1 2 0.008677576545781426 -3.552612273619018 -1.5605841639834175 1.584604117476033 0 1 -1
646 4 2 0.008533887833788023 -6.573951583952786 -7.992950036334866 2.8101479338544486 0 0 -1
191 1 1 -0.01749348945760578 -2.5754443977926194 -1.1006303524016783 1.3922238095858965 0 1 -1
533 3 2 0.008677576545781426 -7.347107128283759 -3.5547712001240566 8.54216515058307 0 0 -1
44 1 2 0.008677576545781426 -7.6680224053905155 -0.24647042137614683 2.1379785094645154 0 0 0
535 3 2 0.008533887833788023 -8.596758462034723 -0.7490668570469516 8.009318629646621 0 0 -1
194 1 2 0.008677576545781426 -2.148498040193492 -1.0489837480409907 2.401418678685509 0 1 -1
545 3 2 0.008677576545781426 -3.845158503964135 -0.9232566658004657 6.692380523729497 0 0 -1
643 4 2 0.008677576545781426 -8.311403281826625 -9.591126950075473 3.563504990523951 0 0 -1
440 3 2 0.008533887833788023 -0.7610196934517699 -1.963875405776637 8.248978170100159 0 0 -1
642 4 1 -0.01692943930153312 -6.7067934649047665 -8.88995837073084 2.1927712384578157 0 0 -1
330 2 2 0.008533887833788023 -0.23274327915530435 -1.0739197505127063 3.613416248739366 0 0 0
641 4 1 -0.01749348945760578 -8.104824953627432 -9.539946455097414 2.4873401624779756 0 0 -1
233 2 2 0.008533887833788023 -7.403646151494383 -6.527783262519369 0.5694765798925427 1 1 0
189 1 2 0.008533887833788023 -0.8308446861111705 -1.4563758694105324 0.316871431241724 0 1 -1
652 4 2 0.008533887833788023 -4.344063610781764 -9.573443328444757 0.6608086430668134 0 0 -1
672 4 1 -0.01692943930153312 -1.7941520842636152 -5.879551444222189 9.421532608626375 0 0 -1
538 3 1 -0.01692943930153312 -5.849374273168558 -0.023652461420622828 7.246780096243111 0 0 -1
443 3 2 0.008677576545781426 -2.6875537212951297 -2.8730914222613926 9.28416951099156 0 0 -1
186 1 1 -0.01692943930153312 -1.722299808528403 -2.0209129310909795 0.6169209912439051 0 1 -1
32 1 2 0.008677576545781426 -9.569206576867826 -5.905978357774499 3.7763757357720174 0 0 0
27 1 2 0.008533887833788023 -9.626197849275345 -7.437994417033613 5.483149084097567 0 0 0
439 3 2 0.008533887833788023 -2.1750983762765506 -0.929359459949854 8.12974240937464 0 0 -1
50 1 2 0.008677576545781426 -5.770916884481612 -0.16496215608476206 0.49170546598235987 0 0 0
14 1 2 0.008677576545781426 -3.2216805658891534 -9.653024302958194 7.492386464197121 0 0 0
526 3 1 -0.01692943930153312 -9.307682498762501 -3.0915660178075886 9.670125881279947 0 0 -1
639 4 2 0.008533887833788023 -9.092870384681781 -8.76532514623297 0.77695023972095 0 0 -1
358 2 2 0.008677576545781426 -0.2694872445973999 -9.401583683029404 8.519343166511092 0 0 0
435 3 1 -0.01749348945760578 -0.5477374664451915 -0.17057715622256353 9.441749396296277 0 0 -1
182 1 2 0.008677576545781426 -2.571600145287965 -5.475914409760651 0.10197487767504221 0 1 -1
536 3 2 0.008533887833788023 -7.389226975736633 -1.1403715762485263 9.224694706012663 0 0 -1
15 1 2 0.008533887833788023 -4.738243733690109 -9.47470137816468 5.6742223851998155 0 0 0
675 4 2 0.008533887833788023 -0.7213641466567733 -5.710606089830162 9.266586205760142 0 0 -1
180 1 1 -0.01692943930153312 -0.617916579027856 -4.452365135646625 0.6804434271740298 0 1 -1
614 4 2 0.008677576545781426 -0.26681374613331066 -9.160858491075578 1.8467939700964706 -1 0 -1
609 4 2 0.008533887833788023 -0.14356532125953514 -8.41115526522957 4.146730801213163 -1 0 -1
648 4 1 -0.01692943930153312 -4.225466457664471 -9.595786378282982 1.7511573108597531 0 0 -1
239 2 2 0.008533887833788023 -9.366284809988995 -4.9999149917866825 0.6878486677500479 1 1 0
177 1 2 0.008533887833788023 -0.8357694071934514 -7.14401320963829 0.09679732639981786 0 1 -1
645 4 2 0.008533887833788023 -6.613558008553542 -8.551343820877218 1.1535063147254299 0 0 -1
543 3 1 -0.01749348945760578 -4.454214909605032 -0.036497052160189725 6.477595534714602 0 0 -1
12 1 1 -0.01692943930153312 -5.1977734198653085 -9.689925193841813 6.646814727678535 0 0 0
628 4 2 0.008533887833788023 5.467290513558016 -9.138466264449178 0.06257816585736897 -1 0 -1
610 4 2 0.008533887833788023 1.2467659662381596 -9.43271196978657 4.575292515936443 -1 0 -1
100 1 2 0.008533887833788023 3.1246458388091813 -6.064375175082498 9.187113274591773 -1 0 -1
530 3 2 0.008533887833788023 9.170012341771216 -2.6119476497570684 9.52532465408942 -1 0 -1
246 2 2 0.008533887833788023 7.9208829729550025 -3.2659087220685192 0.6000463665001572 0 1 0
28 1 2 0.008533887833788023 9.707767893703164 -5.916225669491119 6.327766917912427 -1 0 0
353 2 2 0.008533887833788023 1.8935466414969415 -9.444613640202524 7.051171930366657 0 0 0
111 1 2 0.008533887833788023 3.564700135009435 -1.28344234532282 9.357257756809858 -1 0 -1
329 2 2 0.008533887833788023 0.8757485096816318 -0.3172812159727325 4.741526074001166 0 0 0
99 1 2 0.008533887833788023 4.307526399171518 -4.974505804090601 9.67410534795492 -1 0 -1
119 1 1 -0.01749348945760578 7.033463638414407 -0.35638319689248377 7.337398888707948 -1 0 -1
122 1 2 0.008677576545781426 6.39973967797593 -0.02455992269889684 6.505706949048534 -1 0 -1
114 1 1 -0.01692943930153312 6.10145004867084 -0.7574256297667414 8.466762500450677 -1 0 -1
606 4 1 -0.01692943930153312 0.3944174083241734 -9.332623391776021 3.8919851307251854 -1 0 -1
118 1 2 0.008533887833788023 6.737751218139703 -1.166596894250569 9.261196019694712 -1 0 -1
580 3 1 -0.01692943930153312 6.4263073403834845 -7.6591392892562284 6.878031581924116 0 1 -1
355 2 1 -0.01749348945760578 0.776849919843281 -9.410685488338627 8.848767698303714 0 0 0
256 2 2 0.008677576545781426 2.9092018723399633 -3.40447322433703 0.45306701460694043 0 1 0
616 4 2 0.008533887833788023 2.326499456114055 -8.161525222909006 2.8428743932527 -1 0 -1
633 4 2 0.008533887833788023 7.897416458372295 -8.63400047138973 0.40915042736931895 -1 0 -1
622 4 2 0.008533887833788023 3.182774058284462 -6.173331371715708 0.608664746326335 -1 0 -1
337 2 1 -0.01749348945760578 2.614218209038805 -3.981926431282969 3.5362992512181854 0 0 0
599 3 2 0.1204413007164695 6.197462031337755 -1.7343584439683166 4.161436262243042 0 1 -1
105 1 2 0.008533887833788023 0.9910234292732341 -4.234282830311883 8.80327971936611 -1 0 -1
348 2 2 0.008533887833788023 3.168705228181235 -6.569910804467362 6.839338072656815 0 0 0
108 1 1 -0.01692943930153312 3.9863533815006758 -2.209771666298999 8.94793359448309 -1 0 -1
590 3 2 0.008533887833788023 5.7436439370891605 -5.9500245873556015 4.4915110098214335 0 1 -1
619 4 2 0.008677576545781426 2.40371487487338 -9.048430201376133 0.21451979345065375 -1 0 -1
351 2 2 0.008677576545781426 0.8071417687159226 -6.681152629473285 7.967830437638252 0 0 0
251 2 2 0.008533887833788023 4.913821647447694 -4.497246204296869 1.341879216884271 0 1 0
352 2 2 0.008677576545781426 0.32693714048940414 -7.73559763286832 6.633165327714828 0 0 0
107 1 1 -0.01749348945760578 2.866888928028171 -3.1045112171375306 8.259900934363955 -1 0 -1
349 2 1 -0.01749348945760578 1.1671927324955789 -7.457214508838437 7.28116006963662 0 0 0
113 1 1 -0.01749348945760578 5.1438080807666395 -1.8532959992007711 7.980735503199405 -1 0 -1
346 2 2 0.008677576545781426 1.1178837694975563 -6.007203990749774 4.483474506357952 0 0 0
618 4 1 -0.01692943930153312 3.425786054813461 -7.220203193415833 0.3885981108720209 -1 0 -1
347 2 2 0.008533887833788023 2.670467423736751 -7.634443315752682 5.625192422584634 0 0 0
339 2 2 0.008677576545781426 2.1040010197380035 -4.498527829952257 2.7139694792478615 0 0 0
579 3 1 -0.01749348945760578 5.383299189058656 -8.57885608144139 6.156212914881502 0 1 -1
598 3 2 0.1204413007164695 7.167755972706274 -1.8641574302811446 2.665879243468037 0 1 -1
582 3 2 0.008677576545781426 4.602362451840465 -8.938663045620677 6.837462797495384 0 1 -1
102 1 1 -0.01692943930153312 1.755222607211346 -3.608380135354392 9.280427862891205 -1 0 -1
617 4 1 -0.01749348945760578 2.145005175177838 -8.034779629345454 0.5446806667026163 -1 0 -1
623 4 1 -0.01749348945760578 4.72040265711591 -7.536685157452077 1.2519456073734112 -1 0 -1
338 2 1 -0.01692943930153312 3.005188556110646 -5.01604706298703 4.58501346953426 0 0 0
629 4 1 -0.01749348945760578 6.304411734077746 -9.3157256223915 1.937457386955403 -1 0 -1
326 2 1 -0.01692943930153312 0.7348260912891664 -0.5614577830210408 3.6813645854135526 0 0 0
615 4 2 0.008533887833788023 0.9742367207058145 -7.181557428716026 2.292484807286776 -1 0 -1
631 4 2 0.008677576545781426 6.1885108495310295 -8.897356028865692 2.9449089111478486 -1 0 -1
596 3 2 0.008533887833788023 6.33791816480203 -4.152534016316802 3.149426657748384 0 1 -1
248 2 1 -0.01692943930153312 5.082298130495799 -3.623871215468581 0.699807131499858 0 1 0
116 1 2 0.008677576545781426 4.677619727762174 -1.5140460073669093 7.047460219166187 -1 0 -1
626 4 2 0.008677576545781426 4.621967630869877 -7.287207784796372 2.315663810319819 -1 0 -1
588 3 2 0.008677576545781426 7.0093078879268305 -5.649902045003133 7.284406994047934 0 1 -1
343 2 1 -0.01749348945760578 1.815756845995045 -5.733790708093282 5.284500744610945 0 0 0
589 3 2 0.008533887833788023 7.453333197496665 -6.145001299974944 4.9081629076950755 0 1 -1
341 2 2 0.008533887833788023 3.6101638439809722 -5.759193127050963 4.0510063863494175 0 0 0
121 1 2 0.008677576545781426 7.597373508921855 -1.2746775360669886 7.132056188011688 -1 0 -1
585 3 1 -0.01749348945760578 6.210224565188936 -6.095206785220304 6.6789365542180335 0 1 -1
597 3 1 -0.3613239021494086 7.0983480025360635 -2.174059305698349 3.7159116262935186 0 1 -1
350 2 1 -0.01692943930153312 1.768843342253124 -8.68644005535438 7.834144693028833 0 0 0
587 3 2 0.008677576545781426 5.285121496627347 -5.680410082841599 7.097926494942946 0 1 -1
110 1 2 0.008677576545781426 2.3815782146499895 -2.5355777277550287 7.457272089425466 -1 0 -1
583 3 2 0.008533887833788023 6.447253281250955 -7.937893878756691 7.938824525220113 0 1 -1
345 2 2 0.008677576545781426 1.2405942608778595 -5.015437324097164 5.881645079686519 0 0 0
595 3 2 0.008533887833788023 8.072549650542811 -3.975177603007123 3.5527263859383 0 1 -1
340 2 2 0.008677576545781426 3.606538396830329 -3.6274637210161824 3.231206957594683 0 0 0
591 3 1 -0.01749348945760578 6.772060216163773 -4.143069228446671 5.249698082351383 0 1 -1
332 2 1 -0.01692943930153312 1.76780388925261 -2.8076312888396524 4.093974050247928 0 0 0
354 2 2 0.008533887833788023 2.6471335874694013 -8.49942172259222 8.464267803059396 0 0 0
334 2 2 0.008677576545781426 2.805103354438703 -1.0397221613650132 3.397961813874291 0 0 0
584 3 2 0.008533887833788023 7.416488860337008 -7.799006169286031 6.427030079912573 0 1 -1
625 4 2 0.008677576545781426 5.485819375775122 -6.855730562668677 0.8596921791921677 -1 0 -1
611 4 1 -0.01749348945760578 0.6921781752240168 -9.2581751319609 2.3705196511783715 -1 0 -1
331 2 1 -0.01749348945760578 1.8294018389611395 -1.5167904587733183 3.2435685511809123 0 0 0
109 1 2 0.008677576545781426 3.3724553025420505 -3.960696121006279 7.796462919958888 -1 0 -1
593 3 2 0.008677576545781426 5.939842101729539 -3.551310402621846 5.65052149450127 0 1 -1
335 2 2 0.008533887833788023 2.1058837515306834 -2.5989153549949764 5.116502538178937 0 0 0
635 4 1 -0.01749348945760578 8.77673278803945 -9.332800690622001 2.2384987377792225 -1 0 -1
624 4 1 -0.01692943930153312 5.14497165989094 -8.950775025436167 1.0942307589578668 -1 0 -1
333 2 2 0.008677576545781426 1.688082245792863 -1.7127678347239748 2.1735001424953815 0 0 0
586 3 1 -0.01692943930153312 6.512485439674617 -5.678539499998762 5.22540695735791 0 1 -1
630 4 1 -0.01692943930153312 7.693258689156313 -8.623030768561668 1.4869370011880712 -1 0 -1
634 4 2 0.008533887833788023 7.6997823015707 -7.551038026380766 1.7197755437623101 -1 0 -1
252 2 2 0.008533887833788023 5.338293554983871 -2.7544302993787744 1.3178391548435755 0 1 0
594 3 2 0.008677576545781426 7.6003476628933555 -3.845604266371475 5.904586775265059 0 1 -1
600 3 2 0.1204413007164695 7.916948372829985 -1.8164642198506993 4.352656299482 0 1 -1
581 3 2 0.008677576545781426 4.753098585653783 -8.127079155262342 5.380217234800096 0 1 -1
115 1 2 0.008677576545781426 5.8397013943917955 -2.6801610181943314 7.792451725743938 -1 0 -1
336 2 2 0.008533887833788023 0.72267607261597 -3.1033273413550706 4.247908641563942 0 0 0
342 2 2 0.008533887833788023 3.7295045777603235 -4.62889909289167 5.3122733746141755 0 0 0
592 3 1 -0.01692943930153312 7.052946888218251 -3.6931399781661485 3.843051426354892 0 1 -1
245 2 2 0.008533887833788023 7.718248406580663 -4.885804654182519 1.1080758197141272 0 1 0
612 4 1 -0.01692943930153312 1.56448012357197 -8.07611034234816 2.0583645520164158 -1 0 -1
344 2 1 -0.01692943930153312 2.2636817643944287 -6.866898038873387 6.295135966203063 0 0 0
434 3 2 0.008533887833788023 1.135694568488944 -0.7511951987109668 8.128524553722333 0 0 -1
627 4 2 0.008533887833788023 4.341291766944625 -9.603411920492846 1.4569817136821488 -1 0 -1
184 1 2 0.008533887833788023 0.35045480255574546 -4.232244067566892 0.21436582824071593 0 1 -1
578 3 2 0.008533887833788023 6.897867219039995 -9.571771312435228 5.125263567829354 0 1 -1
242 2 1 -0.01692943930153312 7.629578815288244 -4.251815563500703 0.21722210934292896 0 1 0
106 1 2 0.008533887833788023 1.1722350934801273 -2.7505061766407426 9.637643073319875 -1 0 -1
637 4 2 0.008677576545781426 8.583236714086798 -9.180678053442085 3.307536826196877 -1 0 -1
505 3 2 0.008533887833788023 6.910356928087992 -1.14638128108996 0.13725491742423124 -1 0 0
211 2 1 -0.01749348945760578 -4.229564833925204 5.464907885269525 -4.233135628015566 1 0 0
212 2 1 -0.01692943930153312 -5.197117619427804 6.272483971023197 -3.2610389865318474 1 0 0
215 2 2 0.008533887833788023 -6.236104339580378 6.264305619137033 -3.612982289827083 1 0 0
216 2 2 0.008533887833788023 -5.1952936260012885 5.766609213749598 -2.287637169408856 1 0 0
465 3 1 -0.01749348945760578 -6.24418884386918 2.691997425208223 -2.230242636000148 0 0 0
468 3 2 0.008677576545781426 -6.337807127475752 3.625675735937845 -2.7984901928411654 0 0 0
213 2 2 0.008677576545781426 -4.060709953897419 6.132329592789528 -5.087220555023267 1 0 0
214 2 2 0.008677576545781426 -4.624573176734985 4.590755785996487 -4.7653490581421885 1 0 0
209 2 2 0.008533887833788023 -2.575421580444443 6.219443369373405 -3.1835321614712333 1 0 0
206 2 1 -0.01692943930153312 -2.8338831965154947 5.234048697727976 -3.5904956921758417 1 0 0
210 2 2 0.008533887833788023 -2.195355589094718 5.123169327272379 -4.475601646160853 1 0 0
205 2 1 -0.01749348945760578 -2.744660324494406 4.088976136029283 -2.6370563148414705 1 0 0
207 2 2 0.008677576545781426 -3.188468919834272 3.1736459723949757 -3.0477015450993115 1 0 0
208 2 2 0.008677576545781426 -3.299462534575828 4.300886484874894 -1.714715216279382 1 0 0
201 2 1 -0.3613239021494086 -1.1733164583228906 3.7221048045649443 -2.354515776319605 1 0 0
386 2 1 -0.01692943930153312 -7.170524104238664 6.958107376170055 -8.874963939510696 1 -1 1
780 4 1 -0.01692943930153312 -7.325899434757907 2.4419226035414567 -8.572379656223847 1 0 0
785 4 1 -0.01749348945760578 -6.134307607234513 3.1815637060628923 -7.98010838944407 1 0 0
460 3 1 -0.01692943930153312 -6.567314914968147 1.537419655266154 -3.250618720172901 0 0 0
463 3 2 0.008533887833788023 -7.5353587542783655 1.7291470800353679 -3.7297393630633673 0 0 0
782 4 2 0.008677576545781426 -8.349021229332735 1.701407316465163 -6.817075066564982 1 0 0
391 2 1 -0.01749348945760578 -5.895394581066677 7.335361931491612 -8.172381169158403 1 -1 1
393 2 2 0.008677576545781426 -5.467542397694026 6.4723599287063465 -7.6474098209255805 1 -1 1
779 4 1 -0.01749348945760578 -8.547933113857885 2.427572720830394 -7.614911226122659 1 0 0
388 2 2 0.008677576545781426 -8.206842292022312 5.7584495102234285 -7.2502833569239 1 -1 1
788 4 2 0.008677576545781426 -6.18775989272035 3.447996822702539 -6.917290848870504 1 0 0
385 2 1 -0.01749348945760578 -8.349502251878542 6.639993871380522 -7.8874271248245025 1 -1 1
469 3 2 0.008533887833788023 -8.260914805217904 2.7758160870649675 -1.3211027517980565 0 0 0
791 4 1 -0.01749348945760578 -3.518527600060435 3.2774222456093227 -7.545555617079632 1 0 0
781 4 2 0.008677576545781426 -8.75512668482408 3.4040136759072492 -7.159874501876649 1 0 0
462 3 2 0.008677576545781426 -5.375830156251026 2.1511854527605454 -5.099616711940798 0 0 0
387 2 2 0.008677576545781426 -8.634005205714175 7.452332986972188 -7.207289046688557 1 -1 1
794 4 2 0.008677576545781426 -3.9071017305485993 3.6001063698162277 -6.571744095699845 1 0 0
467 3 2 0.008677576545781426 -5.213135016140829 2.6659508238383562 -1.8565121376397364 0 0 0
466 3 1 -0.01692943930153312 -7.203344821456666 2.7118106029865157 -1.0367195050120301 0 0 0
392 2 1 -0.01692943930153312 -5.894332584326139 8.682842068957054 -7.3484565629780745 1 -1 1
203 2 2 0.1204413007164695 -1.0768647165562388 2.9119454454620204 -1.621191978921475 1 0 0
787 4 2 0.008677576545781426 -6.072639594203439 4.155172212736135 -8.481813711012705 1 0 0
166 1 2 0.008533887833788023 -1.4057083423904633 7.925857788997476 -2.1194212462530304 0 0 -1
786 4 1 -0.01692943930153312 -4.748012055004908 2.5046674293277107 -8.07513137833163 1 0 0
793 4 2 0.008677576545781426 -3.3116039938911346 4.217952229536859 -8.070922600666716 1 0 0
217 2 1 -0.01749348945760578 -4.787409719091831 7.821353972767813 -3.2012051732431255 1 0 0
222 2 2 0.008533887833788023 -6.421015901839541 8.260751302532853 -1.6207494741544437 1 0 0
219 2 2 0.008677576545781426 -3.851980522953344 8.008516087027015 -2.6595720178713753 1 0 0
220 2 2 0.008677576545781426 -4.671743413425299 8.065172016759174 -4.2645013786045345 1 0 0
218 2 1 -0.01692943930153312 -5.927684016483216 8.652196339453763 -2.518980247819834 1 0 0
162 1 1 -0.01692943930153312 -0.5722900167671714 8.318954027143075 -1.5241785149187361 0 0 -1
204 2 2 0.1204413007164695 -0.7730029232104307 3.2041601398198694 -3.2348038279031224 1 0 0
396 2 2 0.008533887833788023 -6.378579768635342 8.519072837329123 -6.377833521940483 1 -1 1
783 4 2 0.008533887833788023 -7.043668157829853 1.3998419368428792 -8.76690004937235 1 0 0
792 4 1 -0.01692943930153312 -2.2729273271540213 2.325380335581892 -7.439934701844453 1 0 0
202 2 2 0.1204413007164695 -0.5005087772830112 4.524437364934652 -2.0273811681088016 1 0 0
474 3 2 0.008677576545781426 -7.012939623114564 4.8565720152597525 -0.6306428328524376 0 0 0
459 3 1 -0.01749348945760578 -5.537606272379395 1.3572903170198067 -4.3600332566976405 0 0 0
161 1 1 -0.01749348945760578 -0.14849726467622837 7.3127491249022185 -0.42602993978280956 0 0 -1
727 4 2 0.008677576545781426 -9.217555170199823 5.291601234149157 -1.754974743291684 1 -1 0
730 4 2 0.008533887833788023 -9.006359210395178 7.51649437802304 -1.4219838998222087 1 -1 0
698 4 2 0.008677576545781426 -0.552031455033692 6.509060584227726 -4.800646843565546 0 -1 0
799 4 2 0.1204413007164695 -0.8472738012954739 3.9000438372681288 -7.32101321173462 1 0 0
797 4 1 -0.3613239021494086 -1.0203118132138975 2.9260918379339635 -6.846776876895346 1 0 0
221 2 2 0.008533887833788023 -6.739142013644415 8.737470653583035 -3.252253005887045 1 0 0
693 4 2 0.008533887833788023 -0.5960505069279662 7.596153094813918 -6.909305603869242 0 -1 0
795 4 2 0.008533887833788023 -2.4644295866590875 1.3862845048837755 -6.906220603344865 1 0 0
470 3 2 0.008533887833788023 -7.0435095939184915 1.888824489128007 -0.32920887271065347 0 0 0
394 2 2 0.008677576545781426 -5.1301603702166725 7.518956180986667 -8.936668214781047 1 -1 1
471 3 1 -0.01749348945760578 -7.021642393266098 3.9253371589698336 -0.05085822164823561 0 0 0
800 4 2 0.1204413007164695 -1.0605058101700564 3.125596571124337 -5.768812548119966 1 0 0
789 4 2 0.008533887833788023 -4.699866668218442 1.4991939480204053 -7.639092945044929 1 0 0
390 2 2 0.008533887833788023 -7.458270631766657 7.792588201899857 -9.526322422033669 1 -1 1
389 2 2 0.008533887833788023 -7.0638747070646986 6.105334118156229 -9.556746478115945 1 -1 1
398 2 2 0.1204413007164695 -3.723359382612599 8.53765863486511 -7.222805731185906 1 -1 1
790 4 2 0.008533887833788023 -4.630952930392349 2.2691638356022246 -9.140147822891977 1 0 0
383 2 2 0.008533887833788023 -9.45356294729148 5.549297984428961 -9.333989876205802 1 -1 1
464 3 2 0.008533887833788023 -6.771074273805128 0.5724944870033646 -2.770174798089358 0 0 0
397 2 1 -0.3613239021494086 -4.5100294321133845 9.298227788677568 -7.1446422007110915 1 -1 1
692 4 2 0.008677576545781426 -1.847652151137921 9.065956242813282 -5.413714674787777 0 -1 0
796 4 2 0.008533887833788023 -2.043145235638611 2.1008533846222246 -8.488844970565317 1 0 0
728 4 2 0.008677576545781426 -9.127643432116981 5.715294961875957 -3.4705993713247185 1 -1 0
798 4 2 0.1204413007164695 -0.12384125875220242 2.3228667234973255 -7.036208813415074 1 0 0
733 4 2 0.008677576545781426 -9.236116975976472 8.534998985364918 -3.8092938231837197 1 -1 0
2 1 2 0.1204413007164695 -1.6937444034604656 6.02032194092919 -9.673869029727772 0 -1 1
689 4 1 -0.01749348945760578 -0.8211674982146935 9.308896016380668 -5.714935301633246 0 -1 0
454 3 1 -0.01692943930153312 -5.996129827272874 0.13581594814455578 -5.231233672822726 0 0 0
169 1 2 0.008677576545781426 -2.062211698436978 9.456298519125124 -0.3972332053177503 0 0 -1
461 3 2 0.008677576545781426 -4.5530159246683555 1.1888031524161065 -3.906581256124313 0 0 0
380 2 1 -0.01692943930153312 -9.615756419873264 6.390858021341199 -8.649231064049573 1 -1 1
457 3 2 0.008533887833788023 -6.587046924439571 0.5415382453074891 -6.061674056367161 0 0 0
784 4 2 0.008533887833788023 -7.589097839355848 2.915187888762384 -9.526408524202504 1 0 0
196 1 2 0.008533887833788023 -3.271018953911266 0.38903903170398557 -0.15350271164705376 0 1 -1
167 1 1 -0.01749348945760578 -1.1471033394195889 9.634888486967139 -0.9752527665450383 0 0 -1
395 2 2 0.008533887833788023 -6.552627525549454 9.407155215250011 -7.843878778458444 1 -1 1
3 1 2 0.1204413007164695 -3.433790762870327 5.892553382827108 -9.579667480542302 0 -1 1
269 2 2 0.008533887833788023 0.21384901645400234 0.5644133865739125 -4.3982008015469605 0 1 0
306 2 2 0.008533887833788023 5.873864049664794 7.765766193808123 -0.6657179488167895 0 0 0
316 2 2 0.008677576545781426 2.1165832137595615 4.685569653635646 -0.11644823176594699 0 0 0
690 4 1 -0.01692943930153312 0.011294782931120295 8.105620536798288 -6.151018394589412 0 -1 0
732 4 1 -0.01692943930153312 8.79252617872784 9.584317639136927 -2.585405781734024 0 -1 0
431 3 2 0.008677576545781426 1.9518983427036876 0.6826219564193519 -9.47364202917069 0 0 0
735 4 2 0.008533887833788023 7.971866962975874 9.27558410379114 -1.9261434018006325 0 -1 0
374 2 1 -0.01692943930153312 7.3406218752841355 5.647263017921333 -8.25156887123463 0 -1 1
695 4 1 -0.01749348945760578 0.36696658009895167 7.045938504879825 -5.066409181998554 0 -1 0
82 1 2 0.008533887833788023 9.516615881667892 9.515811000590148 -8.135991727593504 -1 -1 0
264 2 2 0.008533887833788023 3.1055257934696776 0.13308296639784167 -2.5154698773797053 0 1 0
777 4 2 0.008533887833788023 9.716468454419466 0.9535095413789936 -8.764754416309618 0 0 0
774 4 1 -0.01692943930153312 9.551085921518556 1.9482809639489478 -8.33289413382039 0 0 0
770 4 2 0.008677576545781426 6.516877934715733 0.32746401813152026 -6.138881258935253 0 0 0
304 2 2 0.008677576545781426 4.017332843577423 9.401951679965357 -1.633572435551649 0 0 0
165 1 2 0.008533887833788023 0.33315496809574796 8.547739453081217 -2.099722769205192 0 0 -1
771 4 2 0.008533887833788023 7.257361472729471 0.8303331477494762 -8.677530647807847 0 0 0
164 1 2 0.008677576545781426 0.24168953081456301 6.410204013583915 -0.9124363519880845 0 0 -1
376 2 2 0.008677576545781426 6.267888750575349 4.721799460007798 -6.6762600654773685 0 -1 1
361 2 1 -0.01749348945760578 2.566182052397611 8.545251728360235 -9.502054135472607 0 -1 1
778 4 2 0.008533887833788023 9.189732024931875 2.5848284251652434 -9.149995799304513 0 0 0
379 2 1 -0.01749348945760578 8.667948897227255 6.1618924109259545 -7.659224283347514 0 -1 1
717 4 2 0.008533887833788023 7.003124053816727 2.838641929986764 -1.7438738436470178 0 -1 0
718 4 2 0.008533887833788023 7.237999794356959 1.8529038846966746 -3.139438389442656 0 -1 0
310 2 2 0.008677576545781426 3.0837189790061377 6.556993077269432 -1.541841419425925 0 0 0
303 2 2 0.008677576545781426 5.718875613559526 9.431772721417715 -2.2550629517229144 0 0 0
377 2 2 0.008533887833788023 7.4004342909741645 4.705905172317804 -8.811651300626744 0 -1 1
734 4 2 0.008677576545781426 8.608050873261043 7.7385093311782285 -3.9071643266933416 0 -1 0
381 2 2 0.008677576545781426 8.369112474312065 7.158025301816725 -7.31016819256448 0 -1 1
699 4 2 0.008533887833788023 1.4039075519650392 5.672889086274257 -6.455462968924822 0 -1 0
297 2 2 0.008677576545781426 3.863769140918027 9.404166651658311 -5.486859618519528 0 0 0
369 2 2 0.008677576545781426 5.202488448021002 7.58096608621646 -8.851586966215624 0 -1 1
714 4 1 -0.01692943930153312 7.0936766450639865 2.8970598508086507 -2.8355753825167618 0 -1 0
378 2 2 0.008533887833788023 6.997494679372313 6.358043106472177 -9.013461177326748 0 -1 1
382 2 2 0.008677576545781426 9.086318393108726 5.592904641044695 -6.819793125402527 0 -1 1
296 2 1 -0.01692943930153312 4.221114067722686 8.513120212855348 -3.591774211162151 0 0 0
772 4 2 0.008533887833788023 6.8268440916236095 2.5293014538501346 -8.323510810385441 0 0 0
764 4 2 0.008677576545781426 3.236072132446253 0.8639770460445249 -5.605931677368739 0 0 0
712 4 2 0.008533887833788023 4.523608122934576 1.9874648440607636 -4.088159061712136 0 -1 0
367 2 1 -0.01749348945760578 4.3608067689842915 7.190178742924861 -8.266538271967004 0 -1 1
729 4 2 0.008533887833788023 8.773606582085808 7.233276844515771 -1.4148483937969978 0 -1 0
725 4 1 -0.01749348945760578 9.69883666741362 5.786633535866782 -2.573361708588661 0 -1 0
726 4 1 -0.01692943930153312 9.635724314461445 7.208433495642165 -2.0927573444772207 0 -1 0
700 4 2 0.008533887833788023 2.474361488653173 6.665811595523607 -5.469031396202667 0 -1 0
731 4 1 -0.01749348945760578 9.308462204399252 8.273266860313736 -3.2538019710311703 0 -1 0
716 4 2 0.008677576545781426 5.614076047771089 4.579975341619887 -2.843800622710657 0 -1 0
364 2 2 0.008677576545781426 2.5526326237017987 9.23774048918063 -8.651348163171265 0 -1 1
88 1 2 0.008533887833788023 6.818890052121187 9.384684015852617 -7.758733197667823 -1 -1 0
715 4 2 0.008677576545781426 5.83902598972646 3.810534746775641 -4.418006639007363 0 -1 0
506 3 2 0.008533887833788023 6.103127373398699 0.05796004960779477 -0.9233082339339429 -1 0 0
697 4 2 0.008677576545781426 0.6646012321142969 7.563883495132636 -4.146316002377053 0 -1 0
301 2 1 -0.01749348945760578 4.791277905879376 8.85071944710079 -2.181821328511214 0 0 0
723 4 2 0.008533887833788023 7.6196065886170565 5.661025264908753 -3.3405367381183835 0 -1 0
362 2 1 -0.01692943930153312 3.068694253454332 7.122967304482927 -9.097825243908261 0 -1 1
307 2 1 -0.01749348945760578 3.765243153705267 6.92228820919221 -0.7636969801878859 0 0 0
701 4 1 -0.01749348945760578 1.6180829731423998 5.037744221596419 -4.384155553188606 0 -1 0
705 4 2 0.008533887833788023 2.819528784584522 3.5266446472024207 -5.386065226824871 0 -1 0
375 2 2 0.008677576545781426 6.410731175044901 6.469736896668326 -6.417683799650671 0 -1 1
265 2 1 -0.01749348945760578 0.9319319735587719 0.28896680610433023 -2.4240920329717914 0 1 0
268 2 2 0.008677576545781426 0.843770775012425 1.382288128111563 -2.4414247720909232 0 1 0
384 2 2 0.008533887833788023 9.565063752882551 7.251697013303961 -9.272097913413027 0 -1 1
300 2 2 0.008533887833788023 4.695596060970015 7.67659061452585 -4.119513973499684 0 0 0
711 4 2 0.008533887833788023 4.560617902911336 2.2086688849787226 -2.240859554467745 0 -1 0
766 4 2 0.008533887833788023 4.185462370269432 1.4625911079327487 -7.818561131778363 0 0 0
719 4 1 -0.01749348945760578 8.318357433426552 3.717373464244311 -3.215388061378561 0 -1 0
762 4 1 -0.01692943930153312 4.598497080182307 0.6012197383544464 -7.279241490723642 0 0 0
365 2 2 0.008533887833788023 2.328396913128186 6.635652284748591 -8.451366717095947 0 -1 1
722 4 2 0.008677576545781426 8.477392063987612 3.6554360595043036 -4.299037633287207 0 -1 0
720 4 1 -0.01692943930153312 8.324254628005942 5.126169877082917 -2.6918259262493196 0 -1 0
263 2 2 0.008533887833788023 2.5192475065568587 0.5860353272818308 -0.9204261815506936 0 1 0
768 4 1 -0.01692943930153312 7.061203811757437 1.554837597872087 -7.8775056618992565 0 0 0
721 4 2 0.008677576545781426 9.193400023440109 3.2463740944139783 -2.7507539677247834 0 -1 0
509 3 2 0.008677576545781426 8.573296084718194 0.6730213720738796 -1.6424295583244515 -1 0 0
706 4 2 0.008533887833788023 3.776642937841835 4.8355065367929555 -4.773712911680165 0 -1 0
713 4 1 -0.01749348945760578 5.75784644129328 3.6132257146615885 -3.3419471772508587 0 -1 0
696 4 1 -0.01692943930153312 1.546000037736853 6.081769879000058 -5.447469378408045 0 -1 0
704 4 2 0.008677576545781426 0.7527222381499232 4.364252047454352 -4.415523913654365 0 -1 0
769 4 2 0.008677576545781426 5.789660229670117 1.885841858001477 -6.002901298094928 0 0 0
708 4 1 -0.01692943930153312 4.4976401957691365 2.6734942342879204 -3.2325227632376032 0 -1 0
370 2 2 0.008677576545781426 4.159626348201888 7.804426107454606 -7.3801685128525225 0 -1 1
702 4 1 -0.01692943930153312 2.903449546672702 4.215345353054028 -4.536316264043218 0 -1 0
299 2 2 0.008533887833788023 3.205955611277405 8.09790199296695 -3.613501542619164 0 0 0
373 2 1 -0.01749348945760578 6.2171517755732335 5.698410016461191 -7.173333646661342 0 -1 1
710 4 2 0.008677576545781426 2.3795876206988087 2.655092060981664 -3.0538258227136366 0 -1 0
368 2 1 -0.01692943930153312 4.80152481302826 5.752408595501857 -7.828270572792129 0 -1 1
707 4 1 -0.01749348945760578 3.1648932964759204 3.3967641437039706 -3.245245461344675 0 -1 0
305 2 2 0.008533887833788023 5.5465756090768235 6.935017549895015 -2.08285555610345 0 0 0
776 4 2 0.008677576545781426 8.604908473747429 0.9380638564650976 -6.655356954295771 0 0 0
724 4 2 0.008533887833788023 7.931282772781298 5.039977423055728 -1.6712531843779797 0 -1 0
371 2 2 0.008533887833788023 4.163956014467216 5.388142774772577 -7.0132605234538365 0 -1 1
703 4 2 0.008677576545781426 1.4985204792554025 5.5618483523043505 -3.4278897726154263 0 -1 0
767 4 1 -0.01749348945760578 6.000373169938211 1.092913075884729 -6.7311104034039415 0 0 0
694 4 2 0.008533887833788023 0.9593263029716788 8.512956637262707 -6.5234929325571045 0 -1 0
302 2 1 -0.01692943930153312 5.058656415315326 7.628505079934772 -1.3868423889531005 0 0 0
775 4 2 0.008677576545781426 8.295550432668893 2.728803691564453 -6.633493379020143 0 0 0
773 4 1 -0.01749348945760578 8.402134209031392 1.832605353955314 -7.257106400368587 0 0 0
709 4 2 0.008677576545781426 3.2455430116311312 4.054261833089853 -2.37082177468755 0 -1 0
372 2 2 0.008533887833788023 4.654278680785389 5.039471468110387 -8.64891894851386 0 -1 1
311 2 2 0.008533887833788023 4.64898258531638 4.8537403476404695 -0.13964535233346886 0 0 0
359 2 2 0.008533887833788023 0.4528292576345425 8.14378137335925 -9.536840632400137 0 -1 1
761 4 1 -0.01749348945760578 3.610329002449447 0.004816340373226424 -6.176194203930747 0 0 0
309 2 2 0.008677576545781426 3.1737220786063602 7.645464373080635 -0.18876760710837992 0 0 0
131 1 1 -0.01749348945760578 -8.41800211585665 2.6812007732291185 5.881685888143931 0 0 -1
132 1 1 -0.01692943930153312 -7.4169032382661815 3.752814821625872 6.36906196809414 0 0 -1
133 1 2 0.008677576545781426 -7.914033202227021 1.781641690376988 5.507208835071351 0 0 -1
135 1 2 0.008533887833788023 -7.911301360461023 4.695724864604106 6.6334784398162725 0 0 -1
136 1 2 0.008533887833788023 -6.851405974052594 3.3911617138240437 7.2367282357922385 0 0 -1
137 1 1 -0.01749348945760578 -6.500454203789468 4.208559705056752 5.262081912356296 0 0 -1
138 1 1 -0.01692943930153312 -5.44748702542351 5.316923719176522 5.544796726325702 0 0 -1
139 1 2 0.008677576545781426 -5.973352514341859 3.3238679005998115 4.884049036241988 0 0 -1
143 1 1 -0.01749348945760578 -4.67351923698772 5.910019055202916 4.223715762503568 0 0 -1
140 1 2 0.008677576545781426 -7.126636027613642 4.529023027596434 4.420283609909955 0 0 -1
142 1 2 0.008533887833788023 -4.686227958066694 4.929648027063372 6.233219752545178 0 0 -1
141 1 2 0.008533887833788023 -5.966392015271159 6.191721033255398 5.955761072880586 0 0 -1
146 1 2 0.008677576545781426 -3.7063715276564144 6.353280005551984 4.491240365104151 0 0 -1
144 1 1 -0.01692943930153312 -4.370060049199156 4.823242235257403 3.259717389308781 0 0 -1
147 1 2 0.008533887833788023 -3.998694920599818 3.9347257282163657 3.7851231935787766 0 0 -1
145 1 2 0.008677576545781426 -5.183493810012183 6.73590489283362 3.7125766262983326 0 0 -1
547 3 2 0.008533887833788023 -4.414099846322113 2.095334404075418 6.735345527744446 0 0 -1
477 3 1 -0.01749348945760578 -8.29105700425063 5.61050526010189 1.6140846804546367 0 0 0
148 1 2 0.008533887833788023 -5.261665751138564 4.528920196187631 2.6924094981756923 0 0 -1
549 3 1 -0.01749348945760578 -2.461409225853102 1.6892548676174144 5.968607423174824 0 0 -1
553 3 2 0.008533887833788023 -2.296292618772849 3.9438119133219534 6.101463894096955 0 0 -1
552 3 2 0.008677576545781426 -2.9320461524538173 1.8496743617391047 4.99075706098918 0 0 -1
544 3 1 -0.01692943930153312 -3.670434456465814 1.2994613894301974 6.865625328322526 0 0 -1
479 3 2 0.008677576545781426 -7.57398487440639 5.665931608529474 2.442432420330354 0 0 0
149 1 1 -0.01749348945760578 -3.3741854951414787 5.305499437705667 2.189117683239772 0 0 -1
152 1 2 0.008677576545781426 -3.856759676972663 6.193598838829724 1.7627077381295901 0 0 -1
550 3 1 -0.01692943930153312 -1.7409463029274619 3.0307046974463923 6.3489520873605905 0 0 -1
150 1 1 -0.01692943930153312 -1.9657826590310892 5.692566174092621 2.686804192827834 0 0 -1
151 1 2 0.008677576545781426 -3.4504375987431484 4.587185302431227 1.3635056939265588 0 0 -1
153 1 2 0.008533887833788023 -2.040711631721491 6.594369609847355 3.306934043709388 0 0 -1
401 3 1 -0.3613239021494086 -8.872753088266863 7.6275612211344175 5.599002262965051 1 0 -1
554 3 2 0.008533887833788023 -1.6572630788886045 3.0065558943801793 7.442496157915535 0 0 -1
155 1 1 -0.01749348945760578 -0.9345315429194123 5.914944353120795 1.6062682423419758 0 0 -1
154 1 2 0.008533887833788023 -1.5697061086187531 4.886454841024298 3.316671080510174 0 0 -1
130 1 2 0.008533887833788023 -8.993969022759511 2.034454049738663 7.778536824312916 0 0 -1
200 1 2 0.1204413007164695 -2.9533599272826105 1.7454102100108493 2.5198484114818207 0 1 -1
558 3 2 0.008677576545781426 -0.5166104371935809 3.4629066828558113 4.626035108438627 0 0 -1
6 1 1 -0.01692943930153312 -3.9483656562362173 7.822983045496613 7.804710265622429 0 -1 0
548 3 2 0.008533887833788023 -3.2608192825017825 1.2539598307333186 7.88227162502271 0 0 -1
197 1 1 -0.3613239021494086 -3.6089408593862915 1.331752052653206 1.7436235997357201 0 1 -1
482 3 2 0.008533887833788023 -9.58396147576528 6.884224550087698 2.623583155901228 0 0 0
404 3 2 0.1204413007164695 -8.120925156427795 8.258812183711672 6.088595576795072 1 0 -1
551 3 2 0.008677576545781426 -1.7258072525173294 0.8773211509411354 6.024088839473828 0 0 -1
10 1 2 0.008533887833788023 -4.876322958543197 7.379304431445835 8.186113395563176 0 -1 0
9 1 2 0.008533887833788023 -3.7977415441558016 7.362721244054288 6.820385036372457 0 -1 0
160 1 2 0.008533887833788023 -1.3694900239716805 7.908463666655717 1.1946637108668448 0 0 -1
158 1 2 0.008677576545781426 -0.7323424546903503 4.94897397921415 1.1272634693140944 0 0 -1
407 3 2 0.008677576545781426 -9.473639212688322 6.908766317000389 7.587011122622567 1 0 -1
126 1 1 -0.01692943930153312 -9.484932171310275 2.369761166942448 6.856610039218776 0 0 -1
476 3 2 0.008533887833788023 -7.8447620606209485 3.4519438917498526 1.9476972282210046 0 0 0
604 4 2 0.1204413007164695 -1.0818408603951433 7.7906357771199914 5.926644081432846 -1 -1 -1
402 3 2 0.1204413007164695 -8.223030290268223 6.8134280618067 5.254804158698308 1 0 -1
134 1 2 0.008677576545781426 -8.924421093403327 3.175020468562982 5.0431712356219 0 0 -1
650 4 2 0.008677576545781426 -5.970790571039302 8.578849342704878 2.434831058384935 0 -1 -1
555 3 1 -0.01749348945760578 -0.35851871776973887 3.3612581456251274 5.706821404537282 0 0 -1
644 4 2 0.008677576545781426 -8.25050106608799 8.950240409982086 1.9833497566441594 0 -1 -1
601 4 1 -0.3613239021494086 -0.7551810873903069 8.806024488678549 5.670316428341183 -1 -1 -1
559 3 2 0.008533887833788023 -0.41880690812706867 5.3874198855222755 6.644263345224207 0 0 -1
478 3 1 -0.01692943930153312 -9.611648877005472 5.8682496531628505 2.2107236023912566 0 0 0
199 1 2 0.1204413007164695 -4.564715786373565 0.904756996223659 2.0716391609505305 0 1 -1
4 1 2 0.1204413007164695 -2.5897756091403297 5.39098247013076 8.390733684279166 0 -1 0
403 3 2 0.1204413007164695 -9.197647939185027 8.290469827309739 4.787571192099637 1 0 -1
1 1 1 -0.3613239021494086 -2.6117040408126453 6.140687172237923 9.191286973014048 0 -1 0
480 3 2 0.008677576545781426 -8.208639833149295 6.340434064674088 0.7993232624341129 0 0 0
5 1 1 -0.01749348945760578 -2.7418690466130515 7.569175368511797 8.727951743704882 0 -1 0
472 3 1 -0.01692943930153312 -8.11363747237128 4.079894559692653 1.0893214887251688 0 0 0
475 3 2 0.008533887833788023 -9.022631309248956 3.6237202953943886 0.6781530315981747 0 0 0
8 1 2 0.008677576545781426 -1.8123639723492566 7.71421312962746 8.163674475205156 0 -1 0
327 2 2 0.008677576545781426 -0.34547656227371704 1.2844682113345574 3.0474212851004694 0 0 0
608 4 2 0.008677576545781426 -1.5589996555808128 9.051697997164094 3.7207254089478674 -1 -1 -1
605 4 1 -0.01749348945760578 -0.572326369050904 8.890401125859615 4.172260222623786 -1 -1 -1
198 1 2 0.1204413007164695 -3.8462813604069916 2.146420485806484 1.0483470958359948 0 1 -1
541 3 2 0.008533887833788023 -6.3925838127793035 0.7577958689050224 6.701173827110722 0 0 -1
438 3 2 0.008677576545781426 -1.1207368236860642 0.7627878149169227 9.50440972043073 0 0 -1
192 1 1 -0.01692943930153312 -2.7626468335597556 0.3706838894969291 0.8184260524177098 0 1 -1
607 4 2 0.008677576545781426 -0.15577219037121814 7.946909590932471 3.7984542303418323 -1 -1 -1
651 4 2 0.008533887833788023 -3.507849787839718 9.053084641840243 1.9532349366055417 0 -1 -1
156 1 1 -0.01692943930153312 -1.2053057017097686 7.010216136114149 0.586700047891302 0 0 -1
542 3 2 0.008533887833788023 -5.818772670569457 0.42797016517180175 8.24604240370289 0 0 -1
16 1 2 0.008533887833788023 -5.862067945002578 8.892011076525435 6.598756323090246 0 -1 0
649 4 2 0.008677576545781426 -5.428475965237964 9.579046046722603 3.6654439941017998 0 -1 -1
473 3 2 0.008677576545781426 -6.0044354509388835 3.908141691158864 0.35953092913057283 0 0 0
11 1 1 -0.01749348945760578 -4.188837200823406 9.332384756107004 7.713326231783029 0 -1 0
603 4 2 0.1204413007164695 -1.5446470964282248 9.504841557456544 5.973338622514275 -1 -1 -1
13 1 2 0.008677576545781426 -4.611731201423038 9.652773152031873 8.673501471825727 0 -1 0
546 3 2 0.008677576545781426 -4.775622930370427 0.0459549216702726 5.431974473633284 0 0 -1
195 1 2 0.008533887833788023 -1.7450463026416516 0.7798234282493777 0.8411912518843074 0 1 -1
647 4 1 -0.01749348945760578 -5.563910705136722 9.58766024312871 2.576863365799804 0 -1 -1
159 1 2 0.008533887833788023 -2.112235441372368 6.71719282312376 0.043523694349506314 0 0 -1
7 1 2 0.008677576545781426 -2.607927393662215 8.231211320632717 9.59235493605517 0 -1 0
481 3 2 0.008533887833788023 9.699411894196622 5.212552240362342 3.0785730966195395 -1 0 0
613 4 2 0.008677576545781426 1.2408159327389452 9.27531709873433 2.134315616415126 -1 -1 -1
127 1 2 0.008677576545781426 9.327711017035835 0.44326145144088436 5.885813782834088 -1 0 -1
163 1 2 0.008677576545781426 0.7754038875463269 7.676814952899335 0.040111066959848785 0 0 -1
124 1 2 0.008533887833788023 8.803288229257845 0.3986831298628104 8.444415227332591 -1 0 -1
405 3 1 -0.01749348945760578 9.52730467302122 7.27077367801191 6.6556347044967445 0 0 -1
408 3 2 0.008677576545781426 8.927488507922792 8.164286741319636 6.8684251092095785 0 0 -1
499 3 2 0.008533887833788023 5.4620972172173285 0.34791568911474435 1.9281230826661702 -1 0 0
432 3 2 0.008677576545781426 0.9172189637327648 1.96924970872662 9.246609501789376 0 0 -1
602 4 2 0.1204413007164695 0.18485343519309438 8.97356889138474 6.210398171860344 -1 -1 -1
433 3 2 0.008533887833788023 0.17465844360658522 0.46336345656924216 7.440801855522157 0 0 -1
366 2 2 0.008533887833788023 3.3488990103135574 6.528525789805315 9.477412733487064 0 -1 0
129 1 2 0.008533887833788023 9.448315988906273 3.305229795103136 7.096483946731272 -1 0 -1
328 2 2 0.008677576545781426 0.4951729245739287 0.39177475901735015 1.7322779732151794 0 0 0
486 3 2 0.008677576545781426 8.580390606601469 4.967841240857524 0.7397841773147125 -1 0 0
417 3 1 -0.01749348945760578 5.504551910195122 4.279601644620012 7.62427059411721 0 0 -1
504 3 2 0.008677576545781426 7.93789577720359 0.5711242908217109 1.422681552365086 -1 0 0
322 2 2 0.008677576545781426 1.0171843535489984 2.7663481084448094 0.9327797624868435 0 0 0
363 2 2 0.008677576545781426 3.3647541630265962 8.907049139843494 9.292161448179975 0 -1 0
308 2 1 -0.01692943930153312 3.979730367295554 5.638547159875666 0.23399171204501812 0 0 0
157 1 2 0.008677576545781426 0.044404105747577916 6.249382049177093 1.9713173876067636 0 0 -1
503 3 2 0.008677576545781426 7.542005029445825 1.8135938375503802 0.26400932688201983 -1 0 0
556 3 1 -0.01692943930153312 0.3076748652201946 4.643552395086928 6.29453500717192 0 0 -1
562 3 1 -0.01692943930153312 2.198070427378278 6.341584855854251 5.987361494785015 0 0 -1
415 3 2 0.008533887833788023 6.076938577044384 5.047602747527224 5.694844996126887 0 0 -1
568 3 1 -0.01692943930153312 4.077827336039343 8.065474014524014 5.763901434753922 0 0 -1
638 4 2 0.008677576545781426 8.804479379298972 9.063672078023675 1.946778670630664 -1 -1 -1
490 3 1 -0.01692943930153312 6.884840167839801 3.529479385644306 2.1808486361640416 -1 0 0
420 3 2 0.008677576545781426 5.002412599103639 5.180804747078287 7.997250110520586 0 0 -1
494 3 2 0.008533887833788023 7.934473922199903 3.2542234378460186 2.019826820129161 -1 0 0
497 3 2 0.008677576545781426 6.879259972654189 1.6869601648332662 3.3351886149136885 -1 0 0
424 3 1 -0.01692943930153312 2.8134448126465514 1.4234801544652615 8.046042914833546 0 0 -1
560 3 2 0.008533887833788023 0.8640727861064601 4.338802889791154 7.1895065295620775 0 0 -1
493 3 2 0.008533887833788023 6.423167217796461 3.901450526903954 1.2578534945812159 -1 0 0
120 1 1 -0.01692943930153312 8.096731560811545 0.7863564528737896 7.700162599621724 -1 0 -1
410 3 2 0.008533887833788023 9.199110731504444 5.349935462829112 5.706389554077939 0 0 -1
416 3 2 0.008533887833788023 7.15371899486539 3.7856515548712455 6.189286677480709 0 0 -1
571 3 2 0.008533887833788023 3.3881503850456074 8.836651171859618 6.128669558152241 0 0 -1
564 3 2 0.008677576545781426 1.0128521923274576 5.538135236155208 4.388354728115035 0 0 -1
557 3 2 0.008677576545781426 0.28897832344669716 2.4843150666172846 5.8298793108592335 0 0 -1
125 1 1 -0.01749348945760578 8.900396923622228 1.2683470637130831 6.468961437304269 -1 0 -1
422 3 2 0.008533887833788023 4.990083062193072 2.291407374938853 6.77568254181541 0 0 -1
495 3 1 -0.01749348945760578 6.18299977341788 2.286996236424871 2.73635360198128 -1 0 0
413 3 2 0.008677576545781426 8.1216841672666 4.950345580270479 7.942031265694016 0 0 -1
412 3 1 -0.01692943930153312 6.550412542118323 4.612629389660565 6.583689895426083 0 0 -1
360 2 2 0.008533887833788023 1.2831733566444186 7.887466066750598 8.409106424239852 0 -1 0
496 3 1 -0.01692943930153312 5.867241205397235 1.28165073612589 1.5189506400363495 -1 0 0
487 3 2 0.008533887833788023 7.134374927373475 6.955104368186184 2.7002362279924377 -1 0 0
576 3 2 0.008677576545781426 4.6535549467336015 9.255177786968297 4.0108503783265945 0 0 -1
483 3 1 -0.01749348945760578 8.651151153584443 5.908978512163577 1.2989607506870655 -1 0 0
500 3 2 0.008533887833788023 5.109956932668128 1.73275468185758 0.8659188078158113 -1 0 0
491 3 2 0.008677576545781426 7.692929850606625 4.695851030646628 3.8176792736518728 -1 0 0
563 3 2 0.008677576545781426 2.1447091133778216 4.410929776199202 5.045744353939927 0 0 -1
423 3 1 -0.01749348945760578 3.7487138011743664 2.618252598406764 8.434483806550311 0 0 -1
632 4 2 0.008677576545781426 6.387379564705974 9.045462317289527 1.9934948202961564 -1 -1 -1
501 3 1 -0.01749348945760578 7.1532958231603025 0.8996872623563998 0.7299521120480268 -1 0 0
325 2 1 -0.01749348945760578 0.5597497813662002 0.7281689593699632 2.7744359568250463 0 0 0
323 2 2 0.008533887833788023 2.644105346129905 1.02821839341593 2.3610636994882412 0 0 0
569 3 2 0.008677576545781426 3.8473139463129424 6.074477288859709 4.767614593639436 0 0 -1
573 3 1 -0.01749348945760578 5.119026927794112 8.690741476987593 4.828268352968912 0 0 -1
427 3 2 0.008533887833788023 2.4548930812383585 1.5947051603841498 7.023522763668478 0 0 -1
318 2 2 0.008533887833788023 3.5084070855600746 3.9750246147376984 2.3725798836242245 0 0 0
315 2 2 0.008677576545781426 2.0813094054732613 5.682844556590904 1.4028056436723197 0 0 0
426 3 2 0.008677576545781426 3.267246790658751 3.5427806142147347 8.776334360524903 0 0 -1
484 3 1 -0.01692943930153312 7.258730045096971 6.056386218234039 2.083578834313304 -1 0 0
492 3 2 0.008677576545781426 6.033545206198788 4.96055631666845 3.517608655561581 -1 0 0
421 3 2 0.008533887833788023 3.7212673375134457 3.5177947259586926 6.623336906465408 0 0 -1
425 3 2 0.008677576545781426 4.337332791379215 2.4417973599607734 9.343227687953764 0 0 -1
429 3 1 -0.01749348945760578 1.5611276734611348 1.1041456930920006 9.045608499911882 0 0 -1
561 3 1 -0.01749348945760578 1.3962412647629598 5.1560124521082304 5.342513989691243 0 0 -1
319 2 1 -0.01749348945760578 1.5816687762506678 2.9047103247181685 1.8631763683482365 0 0 0
414 3 2 0.008677576545781426 7.034810756148403 6.344797934850845 7.6624248354250994 0 0 -1
428 3 2 0.008533887833788023 3.3849420634034466 0.5330434658516605 7.756321782224152 0 0 -1
572 3 2 0.008533887833788023 4.5481207509328065 7.616276600466499 6.647343938304019 0 0 -1
488 3 2 0.008533887833788023 6.551769407316954 6.089623028722407 1.245410153123938 -1 0 0
313 2 1 -0.01749348945760578 2.679434874579478 5.022469206990138 0.762825010916206 0 0 0
314 2 1 -0.01692943930153312 2.877765217327811 3.7115902162676324 1.5144901238363886 0 0 0
356 2 1 -0.01692943930153312 1.2304539194592632 8.56678155334269 9.268859751878022 0 -1 0
566 3 2 0.008533887833788023 2.594717424660219 6.159552578428627 6.993820507853702 0 0 -1
574 3 1 -0.01692943930153312 6.016055659459225 9.580176395164955 5.703907693645425 0 0 -1
123 1 2 0.008533887833788023 7.622611844759167 1.697543797108187 8.085353521060327 -1 0 -1
565 3 2 0.008533887833788023 1.560249500074674 7.190984750615176 6.261458572998572 0 0 -1
485 3 2 0.008677576545781426 8.741729021463332 6.706592631206735 0.5512761804181547 -1 0 0
430 3 1 -0.01692943930153312 0.5705039013886033 0.1449147975682319 8.413078331131864 0 0 -1
312 2 2 0.008533887833788023 4.595263785529214 6.007055908191061 1.063898179791721 0 0 0
577 3 2 0.008533887833788023 6.387956992950318 8.98086158867013 6.544107589739298 0 0 -1
575 3 2 0.008677576545781426 5.831837952218562 7.955560569256427 4.434778411796447 0 0 -1
418 3 1 -0.01692943930153312 4.519675698822667 3.1460611949939263 7.277388293400701 0 0 -1
324 2 2 0.008533887833788023 2.134670364587688 1.9661993555893282 3.758803280359963 0 0 0
320 2 1 -0.01692943930153312 1.8305172836715098 1.6509987965595947 2.7530379248703944 0 0 0
567 3 1 -0.01749348945760578 3.2323097373758376 6.928731182924512 5.076555277511714 0 0 -1
498 3 2 0.008677576545781426 5.350118681351098 2.579823152322003 3.387495926936266 -1 0 0
321 2 2 0.008677576545781426 1.0355101764741157 3.6103577485456366 2.501296467422563 0 0 0
128 1 2 0.008677576545781426 8.181404202177017 1.7524086787669262 5.796534075368555 -1 0 -1
489 3 1 -0.01749348945760578 6.984725916908886 4.820781732632279 2.989268621035375 -1 0 0
409 3 2 0.008533887833788023 7.930898340726927 6.529902313032416 5.252287400931543 0 0 -1
406 3 1 -0.01692943930153312 8.564201849113896 6.166805074532819 6.07113494240274 0 0 -1
411 3 1 -0.01749348945760578 7.603064903238604 5.541600213734709 7.1772593486118375 0 0 -1
419 3 2 0.008677576545781426 6.053752802341139 4.050793064349273 8.54592562602539 0 0 -1
570 3 2 0.008677576545781426 2.8137878208184492 7.3378108836268225 4.14869853990059 0 0 -1
317 2 2 0.008533887833788023 3.409299745887056 3.039504718208086 0.8295107031010378 0 0 0
117 1 2 0.008533887833788023 5.58935366331708 0.11286154567239315 8.89546098689657 -1 0 -1

Velocities

53 0.000536568647057427 -0.003967002370966843 0.00437603285074722
54 0.0021944283250866915 0.005364346447898526 -0.00027671743005896045
55 -0.0018576200056108416 0.006053422893066682 0.01804329261841092
56 -0.02059861023760169 0.005224236085999105 0.023809233673833505
57 0.01847394954824805 -0.02529746618295906 0.00503841915636658
58 0.01308910566891066 -0.005772665066197883 -0.020564614446467473
59 -0.005430592795018974 0.002933026308519378 0.001560390462967918
61 -0.022399286635442012 0.031104156208961967 -0.0018544478087922363
62 -0.0150923661379527 0.0016899643338177854 0.0031075750416262155
447 0.0071962973405530015 -0.007619723615978318 -0.0015099602938306901
60 0.0020495718516439876 -0.006638815368063538 -0.00682182634627361
64 -0.009734228706918258 -0.010477478699274479 -0.0016450369425858532
65 -0.0035517016662400314 0.005028758579279399 0.0005002928313872903
63 0.003517917953255519 0.0030522608170092257 0.02658799076080881
67 0.009449492689371479 0.012545362856881535 0.001495369957511298
275 -0.014094293437775914 0.017275674111132896 -0.0209348092500811
68 0.0002614464566756239 -0.0185631560069123 0.014049747026414993
66 -0.0010406395775645763 0.0016599603255680621 0.002365893667361934
450 0.0022985646019491467 0.015168604611465035 0.023507061452495218
71 0.0061332197663752155 -0.0015799965377254616 0.005482357771004862
70 -0.0008162465422928051 0.003956348470284197 0.0021002261578375193
173 -0.007579600595318231 -0.0018501234173003039 0.004637829836817384
69 0.007740488726010872 0.008226317232467192 0.004285097563523077
74 0.0037142079172658286 0.003878907893735584 0.002702129612475281
232 -0.011338713111158086 -0.009391041337243859 -0.012812466100574448
176 -0.007758886268533188 -0.003033228113386969 0.004213550676081602
175 0.018190671372101074 -0.02940565582241912 -0.02459706153443663
448 0.0002333631546770221 -0.002361344599039962 0.0033800278385196034
174 0.0015310672867437246 -0.003144646858216225 0.0026075555869094556
452 -0.010532674243484696 0.004735099882061073 -0.014613678133724614
683 -0.007935145466962536 0.00200993906158688 0.0019299691116282283
678 -0.00013137350615528685 -0.0002905953306185575 0.0003431691812153451
272 -0.0021520682877454005 0.0029500502610902077 -0.007481217324358882
525 0.004787790540053149 -0.0018759710300795373 0.0003227233451948548
224 -0.002113491026820803 0.0027678341467457313 0.0019892347747111376
73 -0.037911928591117576 -0.020780510160537984 0.01038033756771483
72 0.0035652969400513305 0.0011351025248792536 -0.0037428460635646733
455 0.005029060176159857 -0.004807140723614542 -0.002085431071533138
271 0.0010822070956860166 0.001067317817898096 -0.004057728518858243
682 0.03417721330107574 -0.0015681380465280173 0.023592690862167556
458 -0.01207304053954867 -0.002676743784597666 -0.02479458734213531
181 0.0019273631963752846 0.014866334942132456 0.006530303276351581
237 -0.0020237409211656164 -0.0015120564704348915 -0.0007952896165393296
227 -0.006335157161038627 0.005058350484324129 0.006935582724630411
449 -0.02826539658341702 0.020673014574529434 -0.0017107526143331738
522 0.01731990430044797 0.013532559541961515 -0.01131654871118336
442 0.0008471489588476851 -0.004319191983732177 0.0045243883535098775
235 0.0028603434073825647 0.004757892562580325 0.0023296388397377344
229 0.004458587867213967 0.0005672114739399989 -0.0027593219582212622
171 -0.009185912663043671 0.027063093318763946 -0.02460659915750588
168 0.004062282606222553 0.0015005407015924008 -0.009331934125001991
685 0.013284263114690727 0.01800384807607351 -0.012704550721927173
75 0.011089392512698857 -0.0037151699076220447 -0.01917642326744478
51 0.012280381913974604 -0.02152414665447952 -0.025876808002504605
77 0.0033722513255786814 -0.0015509015833018763 0.0008418481124592317
172 0.012915743946258532 -0.017391709224880796 -0.0059211425600065
48 -0.00039058480548452616 0.007137556945529917 -0.002685175083724318
528 0.005424188035251988 0.0005522250536744882 0.0018300001381570694
282 0.01824016428523175 -0.012274951928139455 0.02134793317606416
521 -0.007708954184972873 -0.010658256531849732 -0.018082122365770267
519 0.0053820687586066535 -0.003624768589317146 0.00584028883032537
230 -0.004300997295442834 -0.0012634657576254184 -0.002700122370947175
238 0.0018794347876871355 0.007404427293528514 -0.01610118468698956
677 0.0022238337236254076 0.008401915433564954 -0.00513903738326272
273 0.023653845686426315 0.02748339491857188 0.013700945143655533
527 -0.0026215331097354114 -5.54626507854691e-05 -0.007035394386820647
178 0.012408412874664754 0.021925565674435876 0.022167396008040796
276 0.01683763516188695 0.013222208531542158 -0.0038856019642634913
228 0.018588385082872635 0.0004542039245402474 0.01408839307781826
49 -0.015135214074499016 -0.0037864767661051125 0.02855850033366736
52 0.020501262628550506 0.015002547904462725 -0.015593444042263142
686 -0.007999632611569526 0.020307519785343627 0.006115430435041891
681 0.001034743574440936 -0.04055588376118151 0.005184943788117492
226 -0.004818928148396779 0.003972442287696791 0.0007955275707958511
684 0.0013885330841489785 0.0037419503050964225 0.0031168012453011
231 0.006856259015542446 0.012024220298926481 -0.0032335694385056775
446 0.004219964539959592 -0.004373766685817509 0.0019441899968352498
399 0.00516034698997267 0.013136079287756104 0.01680025059299413
451 0.03686842943549488 -0.009335213829247638 -0.026652558070060547
453 0.001756913053733941 0.0004331732898220101 0.006624121056309323
516 0.01346865983004846 0.023133642806849757 -0.00865437758953498
76 0.004716964895649795 0.005659244274602648 -0.0047318107321578885
47 -0.0006005380867290037 -0.004680147826763631 0.004448247039101362
679 0.0004524745477634968 0.022403588496597435 -0.0004788507865502968
223 0.002647489147182159 0.002573149678700707 0.0023254479271222687
179 0.0031483157762677585 0.0023399618356137273 -0.002869453759566665
444 -0.020764555161410733 0.0029950600639106566 0.03862590158380019
80 -0.0068488651056097544 0.00986931935916843 -0.01815745428596838
400 0.011532571073763957 0.0019775599486450755 -0.001156969120402587
190 0.009669645572671332 0.0077323655262960065 -0.010064769962426433
441 0.003285626349692183 -0.007676444688026035 -0.0015985521980284166
274 0.01872322237965123 0.04516409205044873 -0.0316813358798644
687 0.016372100296376597 -0.03995075226929999 0.010844338216240514
236 -0.0027488495641427 -0.0028767575243884634 -0.003347250430878684
437 0.015697451863382252 0.003094613218426583 -0.004300455269667527
676 -0.03847242790372695 -0.020553788502595906 0.025636390248956063
680 -0.007098529008128967 -0.006224248506531539 0.02371029643617019
170 0.025699361419767353 -0.0034935459651240794 -0.01671766705677467
279 -0.025728144438014335 -0.008057529188063626 0.00899022622580831
529 -0.03047753384194733 0.012361052507648466 0.00399383412491215
225 0.007359037383989343 0.006742673856536469 -0.0039478770607171195
456 0.011690959917024301 -0.012220619861186506 0.008676852318059135
445 0.007566818632857953 0.02355537825945908 -0.01948181695430134
234 -0.010388962718077018 0.0015046725969356737 0.004874303010293466
691 -0.0205697386912522 -0.004469134044041877 0.013139607151645777
79 -0.004658627337942649 0.0057083853097150495 0.019637679765098157
240 -0.01131997951871363 0.0025235787677369216 0.03128799646848026
357 0.012970379136406567 -0.002880662263299082 5.408543089979616e-06
78 0.0013233378291201943 0.002830501301577301 -0.0009609698715637912
520 4.4302121863845186e-06 -0.0006632551677089216 -0.0044067559421596516
736 -0.0009556697824424272 -0.0005548397946990708 -0.003159701738114003
267 -0.006301308911812522 0.008223264601883615 -0.009367062039393869
515 -0.006011464872477094 0.0023594572261334394 -0.00925652053727008
96 -0.0030876748300559917 -0.000361305470833442 0.0061495232182727025
86 0.015283085322435575 -0.008820664292231887 -0.02051939817472524
510 -0.008561815510091253 -0.00021073997836809185 0.007639527001130454
260 -0.0039585537753267135 0.006437818537392837 -0.0025727628894013674
277 -0.0020882675466975093 -0.010412641678185293 0.0003283615470939927
765 0.0028399789419839864 -0.0012589756267191846 0.00533198451742668
763 -0.007561953149591623 0.01732317376889551 -0.013715041310476277
262 -0.005860381378114228 0.0015006673546677572 0.004767871217814892
253 -0.0009474644258005767 0.007109307866736854 -0.00029086086147373267
514 0.008309091771657945 0.005230944992576581 -0.006049420184928148
512 -0.008779517018461266 -0.013106207967639246 0.01549836933519814
292 0.00858973621385152 -0.013911263001514306 0.02468990175717628
621 -0.0126069956292814 0.01569166119576513 -0.0018563019089796338
750 -0.002952358634205226 -0.002148578121481472 -0.0027752233836961567
688 -0.007673130971729796 0.03074911823934215 -0.004704587492119571
517 -0.019510716444435642 0.008425751894932393 0.0069905065381997
278 -0.0006823886436549825 -0.0007927432926937668 -0.004312285973499139
760 0.0033029268103408724 -0.011931594279843728 -0.0028104529007546113
759 -0.01545346719763914 -0.00044136524548946826 -0.008010719668060398
243 0.008590960908894153 0.009592885525389418 0.007061786739198154
748 -0.01328108079771683 0.017914429308408406 0.006847752943782831
507 -0.004209563969166467 -0.004132561273059255 -0.0016402026938064978
112 -0.0016763347785607393 0.020401607015491856 0.009677456898241977
741 0.014522294055431815 0.005370249166774618 0.016388577256795343
288 0.004586951096448985 -0.008490223645444467 0.006042020926036816
89 -0.0032160775364274033 3.708536936465578e-05 0.005052177702025405
92 -0.034839868890860756 0.003950627696138752 0.009224133886396745
84 0.0016529568740938192 0.0013065770639302955 0.005828655788893169
744 0.003852446515053022 0.005924128997844187 -0.002685016672977297
287 0.014091670390070877 0.013029389676706978 -0.0017158312850650687
93 -0.0030141272069471934 -0.011834780745888947 0.017810668698471557
749 -0.00367032720383633 0.001969984511740387 -0.010326212818723405
247 -0.002967658371784714 -0.002629210173543406 0.003337945129794727
523 0.009237459392261225 -0.0010748825566952542 -0.0034309102583643183
742 -0.0017459808503274324 0.0017266324067160051 -0.009003916988135987
266 -0.003969951918453447 -0.0033090562150735114 -0.0016288848931450956
752 -0.01599263192230046 0.0017278378825560973 0.0026251190877450794
257 -0.00814435392750758 0.006179166984494936 -0.0036809484500931614
97 -0.01768657117435696 0.020969398732801254 0.007108838214452952
758 0.005477421744345386 -0.007335966340747652 -0.007456854144351131
502 0.0033602180104407714 0.005537938769618047 0.0016372941996514552
90 -0.0035392322610317945 -0.004168827993016592 0.004977978159331309
255 -0.0136270430155376 0.013547395910739148 -0.003748999081654839
756 -0.0011663974951696627 -0.007991658004982834 0.00032054171388915464
249 0.012810009573568402 -0.007282061556710822 -0.0015454211808176288
745 0.0023899633732919778 -0.0021577120191037954 0.002559828735600903
747 0.0017012035603585632 0.006365062668995839 -0.0058773876141020795
511 0.021474628926318375 -0.01613522718399287 -0.02033454643872553
244 0.00473409605095389 0.00658567761334946 0.001098581940925954
508 0.0006998957715399592 -0.004546028742476571 0.0018266135998952831
754 -0.002499569106537245 -0.018712472117452226 0.012153744121113697
294 0.013101476389168953 -0.021186366120292198 0.01226025578641156
259 0.002388362610058146 0.0039945548237337305 0.013594266135756166
254 0.008182769940537144 -0.0067424546801142585 0.0012968582902700982
753 -0.004101659596931917 -0.01362599891098324 -0.009370075507270322
751 0.016755224106158963 0.00770926416653954 0.01733443066183126
98 -0.015016712441917823 0.009148088386141836 -0.008754489176745133
104 0.006558766478268353 -0.03427287501932352 0.019977054400960797
513 0.0041762424151974 0.0045005917416647764 -0.00259319122133451
737 -0.005798662547737453 0.0029529044223638927 -0.0016441909586521351
101 -0.002261767945549003 -0.002526094379332376 -0.0018387130674651264
746 0.008643217483308617 -0.006617831445361782 0.00047782822973765335
524 0.010279051106650913 -0.006879136221352152 -0.0493335826667213
258 -0.002605891195101562 -0.023389026497779884 -0.008981008045853202
289 -0.002799242746492189 -0.0022193298324218705 0.005430616249853445
85 -0.005110516627258269 -0.02385581301339657 0.004289984430023626
738 -0.004432029379175233 -0.00029014356175691483 2.10806412945752e-05
283 -0.0025017609266608045 0.0005118749766475899 -0.0018928530788654486
280 -0.007545748651242711 -0.006507043029777561 -0.0029793220050986133
284 0.001261845852789979 -0.0018214913656607393 0.006478261843857794
743 -0.0015725443977679093 0.0035112122505021213 -0.0002996891556400684
281 -0.00378945350010216 0.0039092590912071755 -0.006403465067604052
250 0.0033645095699785365 -0.015858982946689724 0.038572349540181024
739 0.01457880357091108 0.0008565570342772269 0.012856537028332417
91 -0.01843738269811561 0.014681320953690204 0.019035908858939417
293 -0.004265583317512827 -0.02165761590323777 0.019071786182378564
755 -0.009516721306274765 -0.0006271006103949909 0.004334367203487761
291 0.011408565673801026 -0.02250026864601459 0.0036971230269136663
290 0.0014402579413565475 0.0005170594094543291 0.0055542608133094685
261 -0.002888770320602526 0.024393797998149683 -0.0001679995921869915
241 -0.002637235112754351 0.00858936986404893 0.0073846590511739635
518 0.008708633859670441 -0.015342539738513362 -0.013559275966495282
83 0.0006544191171793719 -0.006659875305739291 0.005273022528550393
285 0.005425354454722876 -0.023625003127375848 0.0020097261767012854
95 -0.00455230539538851 0.007933250699936488 -0.006810783867944111
103 -0.004540993384091072 -0.0030763933688311533 -0.007611474310840899
757 -0.005163430193327595 0.0045173165148749556 0.012508373167976813
286 -0.0037108222884147633 0.002601367465714234 -0.0042983134448767776
295 0.0047929740111483845 -0.002087932954917483 -0.003211329254525414
740 -0.007715556830287278 0.014017852005680297 -0.010292185817434886
81 0.010220696464627846 0.013873327410040435 -0.0046605619190040045
270 0.0019862072926697424 -0.010453609273157837 0.02159238452316313
87 0.013537405536446386 0.0019397209552739422 0.005281380522855899
298 0.01422313879048085 -0.020234815919175926 0.017696319381608545
94 -0.02727503271427894 -0.010304374774619034 0.002129750295295859
620 0.00904745253347304 0.009375665988261528 -0.001827248324002204
660 -0.0011148952064087877 0.0010424940058202234 -0.008375405658278866
664 -0.006138370287211195 0.009280015125741793 0.011267709860190824
659 -0.005578973513273569 0.0031287168971530234 0.0021812292134447773
18 -0.0007531515209858226 -0.0035454001163141686 0.0033546487335715277
665 -0.008045973910903816 -0.002423522616258316 0.0024265406367767074
667 0.0024032842715383976 0.014782593442888745 0.019520310578226827
668 -0.023030142261839828 0.011765059908770832 0.008373101031305974
662 -0.0004372074733300067 -0.007619609416547172 -0.021008948029646125
663 -0.036177362000636426 -0.01622932960702701 -0.011271815748153025
23 -0.00302268904101671 0.0012528872364492728 0.0008133640609109357
669 -0.011118810098667945 0.01118908451553845 0.011340290499708174
666 -0.0038485039800367836 -0.0008226360162001005 0.0010165141986815715
670 0.0007537810193509735 0.010635337268239444 -0.008700611257668666
661 -0.027370048209402805 -0.027984077746777185 -0.01901679727438623
654 0.004178240791735213 -0.005721979374170861 0.0012325925797074813
657 -0.0060085032075357986 -0.028477738999051802 -0.007103679033616187
29 0.005586057391143644 -0.0011134186718159895 -0.004847366216305034
22 -0.03035122574969422 0.019037495863476583 -0.009137522197608173
30 0.00028068212125843426 -0.001437280801318048 0.0028676857724521357
658 0.01944876950625053 -0.004111726492433535 -0.00857386836973503
24 -0.00019070418556544128 5.3716902239943075e-05 -0.0015250487172752357
532 -0.0067745180713371525 -0.0014093691335310154 0.004824328147254267
539 -0.04135752594831537 -0.018990080761161696 0.005074659115591835
537 -0.006314493205660308 0.0029305427869902633 -0.0038711109828085248
656 -0.001989064803843632 0.007971489822121319 0.021273626626669512
653 0.0027326320514030624 -0.001228604429491972 -0.003705685012869895
655 0.006090662283585023 -0.011798275848888705 0.004674086136874754
34 0.004810678123565154 0.004950071805227235 -0.004552885327416898
21 -0.004396962616581869 0.0015856505849587096 0.0046240910782077965
17 -0.002111842517036773 0.013051466417663226 -0.0046539878519056875
35 0.007607424832076616 0.004453997272994129 0.005111963291040646
36 -0.002205844208910332 -0.005727622699617819 0.00566328241780653
25 0.023194687135240026 -0.029253665956746076 0.004814157845393401
531 -0.0010987164998960753 -0.0010986797635387357 0.0020438316816882435
46 0.017807515906436155 0.00019018955940646988 -0.0026522987791714327
185 0.007116483885971624 -0.0015837461541029813 0.002219456121186572
40 -0.0028014278363952326 0.008989601298851657 -0.002331883916478409
37 0.01634208690211297 0.027383376305446204 0.0037499288339528417
31 -0.0036746386124146594 -0.025503172811709725 0.01804430817096218
187 -0.006834883830066081 0.01593473493742608 -0.008831850295676322
26 -0.009052320455753264 0.00570168506950875 -0.0013244783032931775
39 -0.0038290000281950057 -0.005295814812796314 0.002638729440319377
540 0.011407805872459627 0.009809330723139147 -0.012953241369140885
42 0.003801087157765278 0.0045020430756422545 -0.0004958531530439536
436 0.0009309717738232023 0.004428318857959201 0.0026372117499974504
534 -0.018209787499768263 -0.01508693530616603 0.015841641349700997
671 0.006373633649772464 0.0005737384947913252 -0.00025439355158351216
674 -0.0008098521417577101 -0.007284318277724583 0.0005269599092125393
20 0.00016994372019133705 0.01387079139737078 -0.027556658134720573
38 0.03832250223136745 -0.021063021123551268 -0.030089480382575282
41 -0.004184220757789017 -0.004289363807186337 0.002209281248228844
19 -0.003428889627172048 -0.004448629898898682 -0.006115627723744009
188 -0.0030131884465756484 0.030866138527262225 -0.0014375290558415554
183 0.017161499038740056 -0.013951860444166036 -0.01659990361818544
673 0.00605205367102172 0.002970027282649944 0.019512599904898793
45 0.0040621079679622465 -0.004088402836523164 -0.0036766547491947446
43 -0.011164267310931902 0.023310873396557158 0.010903365033948035
33 -0.022563949526098075 -0.005040112017328266 -0.02349929732478727
636 -0.005754417233829545 0.002095672796888301 -0.006735043247887271
640 0.004954804091123572 0.002288687584410307 -0.012234881516778673
193 -0.006330107183236775 0.017734510999738197 0.0001859042411186124
646 -0.0031094562660379577 -0.003155846212315731 0.013050715540273714
191 0.000583244615534739 0.0034084401428299033 0.001057407748038066
533 0.004612112773920643 0.006975959253095748 -0.0019569690498171142
44 -0.005140346752694309 -0.0008451141785935463 -0.021704670651906226
535 -0.013828408247543741 -0.019185973461773514 -0.023085040737875134
194 0.012181961759481653 -0.00019117697133457846 -0.003681878394339207
545 0.012094250071482298 0.002212914190725963 -0.013558782894543491
643 0.006479222770679914 0.014213439268837922 0.0034855085973085277
440 -0.014099853579966268 -0.005602923271323232 -0.0037307251267401343
642 -0.000742846945415966 8.602397243495205e-05 0.007838157613249077
330 -0.0028552518553919626 0.01634391514988064 0.008241963416465022
641 -0.0013126140988137648 0.0026256528414202247 0.00144336121157612
233 -0.02285042893152998 -0.020836337427787826 -0.014013733496758888
189 -0.021238602397099876 0.026252561212612237 -0.004115567649153628
652 -0.03291401618155997 -0.006938003425674021 0.00450754539690299
672 0.003014228301350837 0.0039984765546508295 0.0013738706252174329
538 -0.004071603078810854 -0.0014657050631263287 -0.0007114973871627701
443 -0.010777931342834847 -0.0032493333949931576 0.006218621126132038
186 -0.001376123326783515 -0.0031326507969734584 -0.00037587279367207714
32 0.0030569599538300828 0.00368067669831588 -0.0013898015049612742
27 -0.0045465687025749305 -0.0007737582046854173 0.01014622802502116
439 0.003178860462612489 0.002131767554005117 -0.001005028783953967
50 0.002502355371327774 0.0030045533270063557 -0.011551866401607207
14 -0.0064110857302179915 0.0064381696720040935 -0.018002602417783484
526 0.005872639232888145 0.004641330229164046 0.001986746103049142
639 -0.016191570527766704 0.010155760304334498 -0.00882240520324895
358 -0.0008592099353743138 -0.013007049221313426 0.0007364979536917701
435 -0.00034951116146329005 0.003999150709721719 0.0035834895796791944
182 0.008065753227786287 0.00034796597130213594 0.008326154506431288
536 -0.00105268269200397 0.020258547993193245 -0.004784156224467334
15 0.01496104868172675 -0.010362639791929872 0.002305930018550803
675 0.004115500024607181 -0.008564034441888305 -0.004496468554691927
180 -0.007298935464326714 -0.0021096666854145013 0.00028984254234377596
614 0.007643958558297267 0.01997610203704977 0.005898004857119307
609 -0.023549898077698136 -0.013596188702032469 0.00018614124227946748
648 -0.007902942002557839 -0.0029424031370573517 0.0017718134587378484
239 -0.010092595542832495 0.0023651187542022235 -0.002270715531643418
177 -0.01600210368748535 -0.006727134500629145 0.004382848838749176
645 0.029734945236642604 0.005911979920940065 0.012465893852717411
543 0.007807741513691477 0.0006896924279984111 -0.007630820808801641
12 -0.0012759662775301366 0.008834410183440156 -0.0012030337249739958
628 0.008290412271178254 0.015946768845556396 0.0003022769905937127
610 -0.0036866125955383453 -0.002142343809719488 0.01075992078756213
100 -0.00506029124597652 0.017794749151954378 -0.004474240877948124
530 0.009145222841678647 0.014657380644325731 0.01295118275207769
246 0.006027394719792764 -0.004771894830927259 0.007068471621039379
28 -0.005940855859439453 -0.03408784752650959 0.029719650278834567
353 -0.005680153722326036 0.015042159562146044 -0.014099380074392362
111 -0.005237730706565785 -0.020275408112493898 0.032517519936539584
329 0.017291224532205836 0.04526079406682143 -0.008494218860830759
99 -0.0011535469274404975 -0.001770089610869825 0.008475344085941524
119 -0.0009077195328647599 0.005482789517459927 -0.00042109600612897014
122 -0.016262272625069855 0.02132683705774042 0.017530346884674284
114 -0.000597006980101435 0.006744956097758647 -0.002846701805525491
606 0.0011349968250172005 -0.0005387598703151643 0.004944820188615293
118 0.002372179778234115 0.01056808686507764 -0.003261992150374535
580 0.0009069712008123819 -0.0028515883775071284 -0.003542173579727231
355 -0.0008727029910007389 -0.0010877326375451934 0.0011175561202529888
256 -0.01663504367072088 -0.00973521923469826 -0.025260624269742595
616 0.004668181212501595 -0.004246140060252801 -0.005013899764802506
633 -0.027151407254822443 -0.013475662474629082 0.00039868779591870144
622 -0.01780179062414037 -0.004167002343758943 -0.0001506947377833703
337 -5.3599965311504883e-05 0.005515602880904851 -0.0014519121855144253
599 3.069892642728159e-05 -0.0013897870422836902 -0.020686957944566018
105 0.010153399729318065 -0.006778159995399352 -0.008319168902138966
348 0.0021536247023146316 0.0005600689381977155 -0.010623958178141026
108 -0.0005046285514449195 -0.00243263061462955 -0.0030940020657976653
590 0.01101846716699789 -0.019082041392230735 -0.0029061084901797316
619 -0.025824903158274456 -0.0129975215474287 0.0069495538393287495
351 0.002186151698137801 -0.00862576898774434 0.006923028847884906
251 -0.010696158955813167 -0.009538723898279741 -0.0073371921237235255
352 0.015162741692598684 -0.043171295226161685 0.0036134461846543168
107 -0.002268268489135184 -0.0038928599020820603 -0.0021870604680485624
349 0.0037522472336475026 -0.0025050208940046877 0.0008820368449046308
113 -0.004947965612742221 0.0003529149534101656 0.0029018750986316267
346 -0.011070418420815818 -0.008210494268929197 0.012113268015645075
618 0.00032940763925671374 -0.0002783149605700076 0.0015009113229721798
347 0.013401902960015205 -0.007345464004308295 0.008073831749128707
339 -0.008729205046795935 0.01648773438858088 -0.0029367832476511254
579 0.003950789353487111 -0.00367438766369533 0.0031882429528433285
598 0.013823695182830827 0.012400393698937225 0.010093109816264607
582 -0.008554576438551405 0.008470781326392778 -0.004743510656349752
102 0.003254371426800551 -0.004662301964497484 -0.00012115122649500597
617 0.0023745755364159397 -0.003054175946348656 -0.0016206114010261239
623 0.003047453708870492 -0.0020195057839583652 -0.0015804345441858447
338 0.014488449207205439 -0.0029523320534576014 0.001606552678754038
629 0.0015790569721133908 0.0027126025441766657 -0.0011979924394504638
326 0.004363884724377725 0.003435336626937585 0.0029068410004066676
615 -0.015310676685137654 -0.009588916991101488 0.01228078847876625
631 -0.01734045249831175 0.010974903532490062 -0.006850794507439923
596 -0.02120229232235729 0.02280799231870739 0.00238449149417056
248 0.0024445631329285435 -0.005555658545522837 0.001539560460995103
116 -0.008948229522275053 0.003683197066773461 0.006109759238699643
626 0.005167511476240092 0.009601681724360623 -0.004111810065820883
588 -0.010172760192251407 0.0037265049615237745 0.010847662983134462
343 0.00374160456033632 -0.002611525620499114 -0.0027616064156367726
589 -0.0033052875897908378 -0.009551485795726589 -0.0013185541011503706
341 0.02276523065563592 0.007995159557005842 -0.0042723995023826065
121 0.003607023178732172 0.0038184713106359804 0.019102196069070453
585 -0.004574961786261824 0.0017079970463601628 0.004973898049584317
597 0.007877552287317704 -0.009429123845251644 0.003224095930890997
350 0.010832834259400372 0.003936780437977783 -0.0007058941578611746
587 0.005930361853545807 0.017468225162098654 0.012632724736680005
110 0.0034457324279405276 -0.010851247439730354 -0.010554507455065521
583 0.006741838381995058 -0.02634085019704835 -0.009838399625248316
345 0.0028937942145369983 -0.0027539098761159807 -0.003419655040868088
595 0.010344965135114478 -0.008656237995433282 0.040400886513816646
340 0.008347931034519591 -0.012345415809773955 0.004952963267133133
591 0.007238414713112366 -0.0008944282447535571 0.0005409817396943167
332 0.005764273564279149 -0.00796863338146533 0.002554537767094817
354 0.022726067107122713 -0.008090051288135617 -0.013842118164877888
334 -0.0011185130145656495 -0.006233830347630712 0.0018034125073632527
584 0.007078825121916472 0.014817102886288054 0.0044718831267947625
625 -0.007645366682059639 0.010871898449818269 -0.00012740609455089055
611 0.007986526260720503 0.001664608361028931 0.0019102225423759888
331 -0.0012972539900589382 -0.003405454226476632 -0.0057883674374743605
109 -0.01891698137806214 -0.013844462685404195 -0.0019054139509579826
593 0.003470079588936013 -0.0010494059685656409 -0.00710419856845741
335 0.00010892848258086303 -0.014764756385668206 0.005818658614717911
635 -0.002777161267236944 0.0069405900998215884 0.009319721477533505
624 -0.00823084699137927 0.004634067004030302 -0.0027564730663482023
333 -0.0005173823112114923 0.01069582632901784 -0.00848129238929818
586 0.0017498102927374927 -0.00014296043304337175 -0.00022941363311614217
630 -0.0054719885109503425 -0.0012451065730715491 0.004331625625860167
634 0.010379612458250564 -0.0016436461096828473 0.005671986184020319
252 -0.004749914513994635 0.003510376055424744 -0.00821632644143323
594 -0.003120720759161362 -0.0019274074282363597 0.014122141065499796
600 -0.0005484491923591471 0.0133030820842723 0.0012384097676833663
581 0.022797848548175688 -0.014885570335629643 -0.018511407690166674
115 0.016722634862378287 0.017018254515746574 0.009193505881051094
336 0.005290295057148038 0.00727596207136766 0.028938079820195303
342 0.013259555045656339 -0.02867681869374488 0.016571622723960528
592 -0.00016155220625628527 -0.002380722762027275 -0.0026684842310435108
245 -0.01209437435498961 0.0009990048412148365 0.0027640028216283003
612 -0.0001251231949904165 0.003481343932889295 0.0005076940678359397
344 -0.0008457615356309747 -0.0060835816639768 -0.002013711271836616
434 0.011953843068369862 -0.0002938386247149149 0.024923678086751756
627 -0.01166081762133716 0.017275116192647696 0.012484734302926204
184 -0.01597295751337818 0.015274172363567123 -0.009393957678194623
578 -0.013612098088604927 0.004624227979663636 -0.007500921288790153
242 0.008350143081382051 -0.0021639328249217116 -0.001438864423314313
106 0.009933119097723181 -0.0053921789846237515 0.012429977160305217
637 -0.006374506509582028 0.028634986692047424 0.00562520082843498
505 0.006772741695222845 0.015426464360352107 0.0215508663856974
211 0.001245515115497739 -0.002270461583084317 0.0023013786749045036
212 0.0032982544460012087 0.0009593996060601764 -0.001860036143594788
215 0.006578664004436452 0.024877774563226127 -0.012182597102878494
216 0.021707603339918106 -0.030310804465451202 -0.018075945654624732
465 -0.005837876768971813 0.0018399066177654606 -0.005956933256045954
468 0.005128106326105857 0.00558811492865549 -0.0015800670349308263
213 -0.010013249283256302 0.006879306336364452 0.00722520663274973
214 0.017708381712177347 -0.014407904629780744 0.010068104769635102
209 0.023412130216447835 0.00510559753307661 -0.014591256271305362
206 -0.0003286388030064098 0.005431482557946496 -0.0002354924312202372
210 -0.006772428010617859 -0.029962261579119638 -0.00032298790445450755
205 0.004208392209464156 0.0018833628258822723 0.006815731202142683
207 -0.0029770448716920596 0.0027742611621733916 0.012627204090442098
208 -0.015727987115483524 0.0007398480145149858 -0.00492038486233089
201 -0.0015702267772430135 -0.0012415408445799916 -0.00875048796144077
386 0.0033885051011525663 0.0011907559786491996 0.00031168833200372374
780 0.0016147064041709244 -0.003297370558019049 -0.00136599578238412
785 -0.001970113531764567 -0.000259049018391122 0.004252085237960941
460 0.0015260848858503584 0.005692183298261354 0.00319282932401602
463 0.005412756686516819 0.018116468523221227 0.0003680169662982439
782 0.022553066165430402 0.0032121670528957986 -0.005672494900110441
391 -0.00022228480511207003 -0.0013018157759836398 -0.00515799204274304
393 -0.012951966316112801 -0.0010106213827161246 0.005588914994921057
779 0.0032071559846766043 0.00544693715988844 0.0012016653085836584
388 -0.005326317889590668 0.009715082795005795 0.015989631899623692
788 -0.01297771923936052 -0.013074175156685198 0.006832708721202741
385 -0.002014591056557516 -0.0030188244249604638 -0.002400488437066474
469 0.002040117741228227 0.013429505515789576 -0.003908304230347163
791 0.001090107158822952 -0.0025526530408742634 0.005043843662664197
781 -0.014552803959061581 0.006813999559473846 -0.009748081089587909
462 -0.024577803342530014 0.008434979539525085 1.2924134957881509e-06
387 0.010374995540656039 -0.013960281272102823 0.015798549367668852
794 -0.024888529845265142 0.012359459129188585 -0.010133557269541809
467 -0.008343564904002001 0.0009537511438905046 0.0008724914880344038
466 -0.0005975243979071298 0.004471621055193009 0.0038501713632101598
392 -0.0011867806577481692 -0.0056716437083820246 0.0009763904593604109
203 -0.00901523450161121 0.003443947718409153 -0.0026371775713413597
787 0.015844896001743044 -0.004324376108531661 -0.0014346569856889609
166 0.008193139864164978 0.005403197105736915 -0.011639975467481583
786 0.0030116627964194924 -0.001433074458896558 -0.0015760952742441404
793 -0.0070255901605311396 -0.015188258514062651 -0.02064389330380898
217 0.00067592898579007 0.0037937283958873963 -0.00023912907238401654
222 -0.030907499678675916 -0.0111506635203851 -0.01600661813390251
219 0.013429655180413625 -0.034993577956683564 -0.008953452623671547
220 0.007918041936430042 -0.0032915015384362514 -0.0010933250308387337
218 -0.005371884151302815 -0.0068591955444312295 -0.00016328257989750792
162 0.0032395155258913943 -0.007548847259767103 0.0038051835291399044
204 -0.012351561662523897 -0.011784362478307124 -0.0074876654012985
396 -0.00937468544272747 0.004896340529180492 -0.001320695409137223
783 -0.01289696516468822 -0.0069181445864774085 -0.0029817675571226034
792 -0.003857998026902901 0.0038666831308655962 -0.00032192251478543844
202 -0.014237521120227935 0.01290444283433724 -0.017552365350306888
474 -0.014896563017790233 0.009979797377160373 0.019833827743450667
459 -0.0025926234908674878 0.005513461615799894 0.0015901893465189749
161 0.01296146504843426 -0.0020454875706361134 -0.000941991588629746
727 -0.013320576584831895 -0.004722436016992879 0.005354730239031075
730 -0.004447987475878171 0.008220428917673687 0.013475966662991817
698 -0.002680747858797376 7.674502585563634e-05 0.002276237931030035
799 -0.013064245535915736 0.01219075624660993 9.071716986458133e-06
797 0.0005063055919394857 0.006081715080461214 -0.007591029285544971
221 -0.007795229809515819 0.007583389896684969 0.0041785913693742315
693 -0.005938882568013192 0.0127372969720114 -0.01681114211733989
795 0.004275871669277197 -0.0007923912105355674 -0.00559564494259429
470 0.011615235857777968 0.006866270562228519 0.003880310021811201
394 -0.0013260526329235568 -0.00486449634528707 -0.007098137927410127
471 0.002749045187962582 -0.003718428052503772 -0.001907772918657792
800 -0.01848791034481941 0.006601613455892437 -0.008438702744830062
789 -0.0016806943403354514 -0.01071249352381142 -0.022375882519744872
390 0.016930044053390252 -0.014460566125846853 -0.025717365466894265
389 -0.030804695776544083 -0.011849190895662174 0.01116535683850437
398 0.013212773450396807 0.007697420510474624 0.001874308215083871
790 -0.005452388530822791 0.007953995564681016 -0.0045766596035387505
383 0.017683137182353113 0.0018040291495591305 0.008548741708735099
464 -0.005643308815999785 0.0061724253151535105 0.001144458733104128
397 0.0007572349355681117 -0.005045402756496882 0.00016112782919940435
692 0.00801979782843744 -0.02045501350820168 0.027660313631538824
796 0.001713250580570674 0.005640102361858053 0.0005273407391858832
728 -0.002178781304728864 -0.004284216079738268 -0.002828909207084344
798 -0.008910311474119224 -0.01381794003482081 0.011413802638411113
733 0.011884149543700701 -0.025898979567089968 0.02041956521937878
2 0.026481552753973504 0.019773176604861924 -0.028146646506097977
689 -0.001396745856291291 -0.009438650788769999 0.00435777565826661
454 0.0020610837404785834 -0.0018635788274510583 -0.002130531273861498
169 -0.00010699883212880984 0.030010753703086646 -0.0036470921681596344
461 -0.00984249748771798 -0.003853276386596287 0.013803915442820289
380 -0.0015315837120944064 6.58168207190976e-05 0.0061427169886748125
457 0.007408422077172557 -0.011507268724209308 -0.01062821505130539
784 -0.008944872972062009 0.015541933301098066 0.010892861823320598
196 -0.0038071203165657196 0.023325802458411725 -0.0005753952365676203
167 0.0061491655464592536 0.003088665097561714 -0.0021277167050771546
395 0.002518046869722067 -0.005592847466400674 -0.003799430907558109
3 -0.011306104114543783 0.0033769860891279583 -0.010892411182571626
269 -0.0011257582996178316 0.0016532764706875046 0.0045164766802426
306 0.0013274003880716478 -0.026244147602563817 -0.006166569449938176
316 0.006849781671915341 0.019602740849338694 -0.009242779995087975
690 -0.004095942252016448 0.0037270372777321844 -0.012254961617618928
732 -0.0033565500264599586 0.0007265223399530454 -0.0003683703171508482
431 -0.008234818200424267 0.026926918571975468 0.016097519688074095
735 0.001922308060357279 -0.008872964704598977 0.0016995719219624467
374 -0.003571859885185049 0.005767026589421707 1.4328440194792974e-05
695 -0.0024694811326647814 -0.0022672037732242635 -0.0017164512987814528
82 0.01482728792515163 0.011162232560837588 0.007982217222631137
264 -0.01662706434608447 -0.003989431042293845 -0.018812765152564935
777 -0.009978548365143875 -0.007113236680395402 0.002989330795191809
774 0.00015770319600049755 -0.0051181098219111746 0.0022591590212901204
770 -0.01206766858865192 -0.0009283932955641139 -0.0031366419860961573
304 0.008323525387610399 0.019233299370671024 -0.015578250746462107
165 0.01359828403132425 -0.018380089033699386 0.015746519901603837
771 0.01827561205907828 0.004306353429138171 0.00012140086780653809
164 -0.012089858509378996 -0.015472764074304667 0.004078754718551685
376 -0.028501365567575543 0.0027576665623091105 0.006495303834688722
361 -0.006025331324131264 0.0032668241129498285 -0.0011082398119436848
778 0.028215270546555808 0.012653012382817238 0.003812206999872626
379 -0.007398003896147166 -0.0034917420583512066 -0.0022557159458851134
717 -0.01760217894253617 -0.009698259233744845 -0.003159094751728507
718 0.03292005256716358 0.01454200106898999 -0.023039161568820254
310 -0.013532859091799056 -0.003858220864291956 0.0064555663877896765
303 0.0033341352487750455 -0.00019224116665810532 -0.022989643580220244
377 -0.0130214152290145 0.015442542205929877 -0.017351758652824102
734 0.02032837494410942 -0.003503089792088296 -0.019590744103221692
381 0.030454664171038967 0.008517147434646622 -0.004374935196167528
699 0.010093466559330655 0.008054874957338013 -0.002633273588289394
297 0.009903429926622674 -0.023935537507711224 0.003468609203430011
369 -0.002693007453106094 0.0009288512622131537 0.0062554823727768395
714 -0.005296263573275793 0.0029717727108010297 -0.0014698083761726648
378 -0.005925405684224168 -0.013935098909219306 -0.017289653794049682
382 -0.004505857623460085 -0.01262242714550114 -0.009891726157086143
296 -0.0020811740832312087 0.0033281650212514317 -0.002200338661722261
772 -0.00937747543946387 0.0004637211030175823 0.006437299103059013
764 0.007129755073663769 0.009512839489625792 -0.014291517910041778
712 0.002399627216303044 0.022809433300650852 -0.011935510626596754
367 -0.00945582395017303 0.005103182655135872 -0.0006551013113278388
729 0.013003169198943943 -0.010398587998242673 0.013303350353897205
725 4.49399155284024e-06 -0.001650574500398408 -0.001527496686447677
726 0.005744059908204381 0.0027460128569184784 0.0035974539339459597
700 0.00633982883160716 -0.0018967704507765759 0.01893961511673724
731 -0.0051574457643667965 0.00011722555280782453 0.004772786460858044
716 0.011828457364298594 0.0014922777213998548 -0.0003296589886334472
364 -0.0005782751534908437 0.0013687263208448533 0.0005153589427181332
88 0.009746244354991569 0.002751983763693357 0.0055157703072151575
715 -0.0026361642659006607 0.00018803540143845802 0.002976161703516569
506 -0.00968615568282804 0.010069537666622753 0.02470209941058842
697 0.007802440684862543 -0.0063948753003632355 -0.0027225184403884706
301 0.0029356315963538792 0.002558605328001762 -0.006323236108643742
723 0.004730264911915375 0.011087041596250001 -0.010109443077121789
362 -0.0007195096390464174 0.012145610876436367 -0.0016360113204308367
307 0.002979494039555842 -0.004499098995845325 -0.007661580247748425
701 0.002855188657677373 -0.0005354661708600115 0.002886828368294002
705 0.018255782219724823 -8.346937130742625e-05 0.00515540532249785
375 -0.01222411678840054 0.010777998219771986 -0.010839504489764527
265 0.0025103882050252096 0.0029024771613794056 -0.0018380251159742275
268 -0.008078317863581107 0.0015313544673193162 -0.03226912399174486
384 -0.010561195527831246 -0.004378755269814015 0.003945074381981908
300 0.03287995325550172 0.02620458518184395 -0.006668528273341977
711 -0.0259235697780994 -0.012609412865225088 -0.0024620271076530916
766 0.029312240149091787 0.016767933084974214 -0.005604421394448676
719 0.000506869148967304 -0.003920866150876088 -0.005796778534045333
762 -0.00015615033211645822 0.005199379029606772 -0.0013471866208943917
365 -0.014442151232546883 0.024536180765210382 -0.008046484929272926
722 0.019263950593104668 -0.0068779654314846915 -0.0028807987319691506
720 -0.0057986657400800916 0.0036812764899842587 -0.0048314476425483375
263 0.017810252017210454 0.002298284053602762 -0.004264094867263977
768 -0.0007133213181039316 -0.00044484903399742384 -0.0001640819738801607
721 -0.006064411682336765 -0.020589591330505374 -0.010390253754647938
509 0.008668895823787121 -0.011544965176396296 -0.010391149295727861
706 0.014292791062730976 -0.019648226724316785 -0.02302847752644485
713 -0.0024854866729476155 -0.0021269033247851153 0.002551699973065368
696 0.0002840712500622897 0.007028385132681267 -0.0008390225648876668
704 -0.0032810909690218146 0.007469010009718084 0.0007244807328545613
769 -0.0029128796528997717 -0.016053464696282622 0.00251018635573729
708 -0.009477394448285322 0.002841611729665363 0.0038117714171985602
370 -0.012267618000720298 0.019775019501820135 -0.01148106409721832
702 0.0011151276080887495 0.007795324174089483 0.00047397798617578545
299 -0.004160565868249602 0.008121713586562343 0.005741975206690779
373 -0.005560277783397491 -9.304364252766616e-05 -0.0014088247567681674
710 0.01834026928725277 -0.029042461663560892 0.014612556878680502
368 -0.00015127827200825828 -0.003983552573657239 -0.0050417838542175806
707 -0.0064390181337130635 -0.004541164308687763 0.007661125423795851
305 0.012064939660144158 0.01035597997442429 -0.014988448418141388
776 -0.012860466447537182 0.004504755372435638 0.019019523636527428
724 0.006859248644260146 -0.0008806511893804183 -0.00032793692078974065
371 -0.0028937603591289215 -0.0025071803930203592 -0.00654913008882766
703 -0.004644195133544551 0.013017638234147049 -0.005432232545360204
767 0.0009217987958205152 -0.00028017810156991466 -0.013593960728053689
694 0.008453406937271877 0.007331389301837279 0.023421018546887152
302 -0.002350495167155047 -0.009535730936591139 -0.005252830401843602
775 0.02368751092151883 0.004193948468776289 -0.010182476542911548
773 0.010847688965357196 -0.0036581224508678268 -0.0010589229772476057
709 0.01732966374775828 -0.0029729744292737448 0.004352303890474919
372 -0.0009294562282077024 -0.02267975311947847 0.011351283561071812
311 -0.0020468554884575585 0.00022338033718251077 -0.008933133835129429
359 -0.0029461331075774535 -0.012971540953545187 -0.00512485428207396
761 -0.002155926695436041 -0.0012319614708257954 -0.0042222846826576775
309 -0.010236584022823821 -0.011080410763571184 -0.012963383118642239
131 -0.0035967812040623285 -0.0025787912917059523 -0.004711722211481399
132 0.0012846995421854663 0.006315589234007996 0.001931471565323225
133 -0.019120944998252152 -0.00028004966943702956 -0.03114096514409538
135 -0.00031608128850785976 0.00550740411388055 0.0017721909502593596
136 0.0033922887785495224 -0.0028061392097945117 -0.003256670278407988
137 -0.0036719783902646706 -0.0058052873697218045 -8.332325217092577e-06
138 0.0013070691270329299 -0.0004722558646807587 0.009109155118249381
139 0.003364210332177734 0.004906509090951197 -0.015290130911050151
143 -0.007258658912537299 -0.004555065483430611 -0.0038015764678314837
140 0.0022466812428515895 0.009469562354831866 0.0014298473997394923
142 0.014293132502486731 0.032128560889437566 0.013079661529614421
141 -0.010803301990793351 0.0009328904858437278 -0.009044627613677532
146 -0.02279651038513846 0.02206034493430274 0.007989800016094393
144 -0.0004562034682376518 0.0053185117012074885 -0.0035995791968251203
147 -0.006227538393014748 0.005170234430957305 0.00022088986351256803
145 0.002483727232153791 0.005851304299698438 0.003254703481470664
547 0.00016609331424966657 0.0011225636729806177 0.00947566777673903
477 0.003399581600680807 -0.0006190949004502845 -0.0007121206213735273
148 0.012828540324830355 -0.005027251596247467 -0.019188631432492106
549 0.003929828177314364 0.00019836260110121825 0.0027796143365705953
553 0.008775887637460348 0.008104926981285671 0.0017154559865362525
552 0.016675574810118197 -0.012971589823898575 -0.005417651072483691
544 -0.0018234101800597325 -0.00301702425938935 -0.004895452205586608
479 0.0014093777899940247 -0.01404991369775356 0.00199825684438332
149 0.006320133997294774 -0.002489091887480662 0.007796289976478992
152 -0.014444903766867351 -0.02496642591126568 -0.015614826216596364
550 0.0015772416988070973 0.0031397852396140187 -0.00032016883104549285
150 -0.0009984704955196284 -0.0036821540707408953 -0.0017955303693136914
151 0.0040501457105268715 0.006523796726059051 0.00014791222845729823
153 0.012949277186085604 -0.006108047694176153 0.003384552230898424
401 0.002804114015237519 -0.0033704125088223407 -0.003049548406631117
554 -0.005364718741332618 -0.012803269663828266 -0.00012824305288916196
155 0.0020801826326380993 -0.003521008898924856 0.0007956094688728642
154 0.00766452551940082 -0.016311708237133182 -0.023386798000049
130 -0.01490852322629541 -0.013453183360846417 0.006331963450125864
200 0.015783612714907448 -0.01307090720387152 -0.002853140155441206
558 0.014704007055034602 -0.0203214458804448 -0.0004832634675705511
6 0.00041523581949489026 -0.006602067317101943 0.0020489140276405233
548 0.005718141786188536 -0.016173453451811787 -0.008502385291148544
197 -0.0023536603777098773 -0.004185610282069885 0.007653001552252949
482 0.00701965550191327 0.0029644157520562877 -0.02323861454326205
404 0.014336931070924396 -0.019562039242983963 0.0001246430179799983
551 0.008275644243619141 0.0029666780895313094 -0.015229818506214224
10 -0.003322428667627543 -0.027664397730046256 -0.0315170452726405
9 0.018564337136978838 0.004938917862879564 -0.0005274065842253583
160 0.003501495204992628 -0.0004833973897496997 0.0021854014729192845
158 -0.009229365655360429 -0.01073716085709064 0.01059602579907022
407 0.02504132282910893 -0.02068598109242022 -0.022776812399252905
126 -0.004603290127752645 0.0023414459160437376 0.006580945725431927
476 1.947506147905641e-05 0.00023364785964697133 -0.003248656288535565
604 -0.007322308876683476 0.006357554154062257 0.014081823703262957
402 -0.0024542451561073986 -0.01137815176039927 0.0060582227303199974
134 0.0005522205099420437 -0.00017947441691113257 -0.005802372893358326
650 -0.015732952027699306 -0.003651187736725457 0.03721908164883177
555 -0.002088913564942748 0.0010117602097699564 0.003974965396085858
644 0.011324938123691525 -0.0012966504869253868 0.005426774055331773
601 0.000794119196188598 -0.0004922954785881229 -0.0026454102220859472
559 -0.01953232582848291 -0.006052351212340178 -0.005856774918517377
478 -0.006991866259317967 -0.003707298427541245 -0.005846392265835277
199 0.003770679900127195 -0.02092296614821686 0.003698634376626047
4 0.001466211032382748 -0.03063166736961766 0.03341541479504909
403 -0.013950079751606025 -0.007881190306941021 6.437068696106257e-05
1 0.002769673211042352 -1.7559895830739375e-05 0.004869564627190773
480 0.021312454759146154 -0.0058222258602692685 -0.0034819290044050895
5 0.010724651854263014 -0.002753280916588216 -0.001894351176916935
472 -0.0033909246944949555 0.00038246321625658885 -0.0020617081266071573
475 0.01113263977629678 -0.019549365257105975 -0.012223525576964586
8 0.005419286502519988 0.027523987247496155 -0.0027238570741608655
327 -0.013850079197317372 -0.013017995462681677 -0.00751402089922184
608 -0.015531801628027557 -0.0024658182004044676 0.011386506831089487
605 -0.0057301994693044495 0.0020516434983084736 -0.008385371991544236
198 -0.0022665291536290177 -0.0151684005592938 -0.005309789545479934
541 0.014421403135551979 0.014591683570190101 0.0037452908103517944
438 0.011672225749108953 0.011071939194713255 0.008222341479640042
192 -0.006152383546732913 0.004185047602870227 0.0002862308745756395
607 0.00995690689280992 0.002040483502295608 0.009142550150774042
651 -0.00015778122448021294 -0.00017218878430271428 -0.01468005222859227
156 0.006899522258356328 0.0003304201197894878 0.0019174341823760062
542 0.019076294893035906 0.003935521931913557 -0.0038942752040079967
16 0.019511982560637266 -0.008332569124185722 0.019098115163077054
649 -0.0027900676632962094 -0.02622433136048956 0.00995031730184108
473 -0.00012487606285693486 0.001071650971620253 0.005377723961537349
11 -0.003659814389998042 0.0070714547284750654 -0.004549040541302306
603 -0.016373561188978925 -0.02196821870895999 0.0022422253575071992
13 -0.0031690176775837882 -0.016693137487424358 0.0035696561246262243
546 0.011653666771275408 0.006289966207488471 -0.008365440669495659
195 0.004389087565769419 -0.021849862280314325 -0.0018546339341254236
647 0.0031038257966617376 -0.007208916506046958 0.009334925784385823
159 0.008948526294787516 -0.01255161787113028 0.005423940495678856
7 0.013374195676858304 -0.00637179220493723 0.0004742344459390589
481 0.0281870505282492 -0.00029577767833461694 0.002518027414228581
613 0.0013887526526650388 -0.00445040542436809 0.010392170078541294
127 0.017386048143657757 -5.296084466644988e-05 0.014250604828997171
163 0.0037459364269800434 -0.006570199155466604 0.020711847408617506
124 0.0066480215985057845 0.00595519364857017 0.011706300560761817
405 -0.0006807460438682098 -0.002100323509474551 -0.003026457364866077
408 -0.0010093664933577913 -0.006408360318478505 0.01399384008671512
499 -0.0003707662067286813 -0.0060820137154788045 0.007786033828284315
432 0.007936007438907827 0.0038363751400869437 -0.0128262233597912
602 0.0111903533220312 0.01632687304337039 -0.025974207873541544
433 0.010566576376761382 -0.004293037924199438 -0.007312698513787689
366 -0.005904223458065779 -0.0071850856409790016 0.00982634231137587
129 -0.027844625353019233 -0.009339597184089233 0.0017008137208037477
328 0.013238048733209959 -0.011101008183122171 0.005062593420074504
486 0.010568234868611857 -0.001616800141355109 0.005143048785250457
417 0.004632641275322008 0.0027803918307748054 -0.004836853852842132
504 0.0009631804272277951 0.0007038383970494644 -0.005338452795364499
322 -0.01329573818227869 -0.017345439320487547 0.0132320027654905
363 -0.013314045454442735 -0.010109988897034189 -0.017245659003418158
308 0.0061422347940739384 0.00464320402113353 -0.0036577103087859645
157 0.0042506419224518956 0.0053541100660101275 -0.01293954163844142
503 -0.05175050954014646 -0.005056733849933844 -0.03549380323767617
556 -0.0007345374730007467 0.006985588702035469 0.005502135720187803
562 0.0002605358006900827 0.0003746895097709355 0.001515080358703825
415 0.00154112608414041 -0.014206120930158193 -0.013810855706829318
568 0.004687527173378764 -0.00034647599462708366 -0.0039666660620164655
638 -0.02771748472643796 0.015029421897283686 -0.022399629227792976
490 -0.005313932136533611 -0.005272619639770922 0.001484548290588486
420 0.014485033016190262 0.0043976711302942725 0.00464315854200984
494 -0.00891627630474612 -0.016938748253310768 -0.0018684741204312504
497 0.0013967952345747055 0.0036481643274314515 0.010555186330562107
424 -0.00016208381954893326 -0.010460001811082526 -0.010030299579838689
560 -0.0015112859575348065 0.0038570769519289012 0.004910633820365073
493 0.01709868240757339 -0.013298243460624793 -0.01290452239411841
120 0.005038834280089946 -0.0022454095813413404 0.008981122476810498
410 -0.02535482709515608 -0.012161810264553204 -0.009704091307798778
416 0.00024583209099345287 -0.0004347127111487696 -0.008301726693513551
571 -0.014144086427405484 -0.005788368534568309 -0.028076316271130806
564 -0.005253739361940302 -0.002105847584519709 -0.0032810763026902365
557 -0.001880864349491681 -0.0005680479411958842 -0.008409052542548815
125 0.0038023566869242456 0.00222828804658459 0.0009947371256847882
422 0.01689276342166927 0.0026634447574537495 0.008635947180745831
495 0.005142424440812854 0.002566600508400537 0.005157873895241948
413 0.0033778679658192433 -0.02783963467025218 -0.015118496838422923
412 0.003513315371692047 0.0013996205776369856 -0.007205191412509214
360 0.00974221746161187 -0.009348951627255225 0.005768170181603065
496 -0.00651737991363537 -0.0057655535774115895 0.00242071422626733
487 0.00541023078114469 0.004012110776585398 -0.019931972773179492
576 -0.0234337718121376 -0.0044829080101457435 0.007105779178141721
483 -0.003177971704762159 0.0007508120470730871 0.0028417763776775527
500 0.000967605000613072 0.004939858555230296 0.0011414023722308108
491 -0.015232489482315507 -0.0037957387894363317 0.012394408307370307
563 0.01884524221579085 0.0007198165334101685 0.010585710810810483
423 -0.0009190548904747187 0.003591817376308088 -0.002905647772007894
632 -0.0019715863779905234 0.001083398380394673 -0.02790722585199743
501 -0.008027070808545459 -0.004252886347332469 0.002489221196007476
325 -0.000523091655552645 0.00456330945144753 0.0008934582151526008
323 -0.0004035849718337986 0.00043297196071946984 0.009697497354461633
569 -0.006820144865926217 0.007631041697220459 -0.01130411979538655
573 -0.004632741081310733 -0.0038769276243268446 -0.0031999214007408104
427 -0.017060766063188994 0.0008688673388665634 -0.002121483900022055
318 0.0034075397919266044 -0.0018195779265977566 0.0016706286667737705
315 0.012053698846808425 0.007525196735549546 0.002690349017891155
426 0.003523453399160492 -0.0033059940849077944 0.022058300473430117
484 -3.358264282928093e-06 -0.004975211424641343 -0.007858031234744782
492 -0.001867298076693428 -0.0027945921975223776 0.008607280785313401
421 0.013837257633534121 0.004874119389172041 -0.0021311457249575017
425 0.0027375761984207883 0.0289914942435339 -0.000251750397712691
429 0.0002643162506383116 -0.00445602931392347 -0.0015609361834211333
561 0.00699170942598309 -0.0034687978637168307 -0.008795336708089895
319 -0.0007131478097640559 0.00702960577230544 0.0018542461126070887
414 -0.0007402195551560564 -0.007249606920598827 0.015230883888127777
428 0.004639437392005714 -0.009678431107524544 -0.0028047283210140745
572 0.009461954073141286 -0.006897601199077409 -0.00984540841221446
488 -0.004451742299482809 -0.016292175410861545 -0.004554720675515667
313 0.0023115654775081847 0.00045739233653512034 0.0009267332457831827
314 -0.0027358877099859596 0.007263774675161167 0.0034253937322686816
356 -0.0065658085379638 -0.001128781550764704 -0.0017227789090748728
566 -0.023592365178678413 -0.015155897233018233 0.008086918636958606
574 -0.006460553559295807 0.004196331462046358 0.0031540798713986513
123 -0.008070859411874408 0.004793218577138812 -0.02368546921909581
565 -0.006917863876312366 -0.0025241514745242143 -0.006389709702531125
485 0.010492070492501912 0.001787343704278222 0.0056419157623394355
430 4.5873385383715763e-05 0.0005157972022389292 -0.0014330112314014812
312 0.004319412873827199 -0.0006458844108317528 1.349753591037551e-05
577 -0.0026820396224846504 -0.007880162761439106 -0.007114250919441046
575 -0.005863911511911864 -0.009039949299830641 0.0042353888230131816
418 0.009708648956865079 0.0027723876273219967 0.0016732914300329831
324 0.017896041213338758 0.0196028252596137 -0.01335455832353908
320 -0.0023248255961054163 0.005899078645745375 -0.0029516255259465934
567 0.005443722044839933 0.006223691175890459 0.017043084739351868
498 -0.006000380685324124 -0.005487760055815635 -0.005547543227742272
321 -0.006747761703420104 0.015466216347026579 -0.012685449244055694
128 -0.0009266780162358429 0.011790858150027386 0.012924763927898892
489 -0.0042006231862032235 0.00036603572163695236 0.0035594022693056474
409 -0.025296087365353888 -0.0006333420873377308 0.010825608852289847
406 -0.0021572769128922554 0.003759989983006314 -0.0050574765163436085
411 -0.0030106852306305246 -0.004153789891410953 0.007482765191905647
419 0.026232360618662444 0.04617565253935149 -0.006786684795785012
570 0.004132041915169815 0.00995303370998221 0.019290144723383983
317 -0.008116191078443137 -0.007140652671590573 0.013378733051870767
117 0.005194750170474772 0.0077170938160755565 0.002106814106791773

Bonds

1 2 53 54
2 1 53 55
3 1 53 56
4 1 54 57
5 1 54 58
6 2 54 59
7 2 59 60
8 1 59 61
9 1 59 62
10 2 447 448
11 1 447 449
12 1 447 450
13 1 60 63
14 1 60 64
15 2 60 65
16 2 65 66
17 1 65 67
18 1 65 68
19 1 66 69
20 1 66 70
21 2 66 71
22 2 71 72
23 1 71 73
24 1 71 74
25 2 173 174
26 1 173 175
27 1 173 176
28 1 448 451
29 1 448 452
30 2 448 453
31 1 174 177
32 1 174 178
33 2 174 179
34 2 683 684
35 1 683 685
36 1 683 686
37 1 678 681
38 1 678 682
39 2 678 683
40 1 272 275
41 1 272 276
42 2 272 277
43 2 525 526
44 1 525 527
45 1 525 528
46 1 224 227
47 1 224 228
48 2 224 229
49 1 72 75
50 1 72 76
51 2 72 77
52 2 271 272
53 1 271 273
54 1 271 274
55 1 442 445
56 1 442 446
57 2 442 447
58 2 235 236
59 1 235 237
60 1 235 238
61 2 229 230
62 1 229 231
63 1 229 232
64 1 168 171
65 1 168 172
66 2 168 173
67 2 77 78
68 1 77 79
69 1 77 80
70 1 48 51
71 1 48 52
72 2 48 53
73 2 519 520
74 1 519 521
75 1 519 522
76 1 230 233
77 1 230 234
78 2 230 235
79 2 677 678
80 1 677 679
81 1 677 680
82 1 684 687
83 1 684 688
84 2 684 689
85 2 453 454
86 1 453 455
87 1 453 456
88 2 47 48
89 1 47 49
90 1 47 50
91 2 223 224
92 1 223 225
93 1 223 226
94 2 179 180
95 1 179 181
96 1 179 182
97 2 441 442
98 1 441 443
99 1 441 444
100 1 236 239
101 1 236 240
102 2 236 241
103 1 78 81
104 1 78 82
105 2 78 83
106 1 520 523
107 1 520 524
108 2 520 525
109 1 96 99
110 1 96 100
111 2 96 101
112 1 260 263
113 1 260 264
114 2 260 265
115 2 277 278
116 1 277 279
117 1 277 280
118 2 253 254
119 1 253 255
120 1 253 256
121 1 514 517
122 1 514 518
123 2 514 519
124 1 750 753
125 1 750 754
126 2 750 755
127 1 278 281
128 1 278 282
129 2 278 283
130 2 507 508
131 1 507 509
132 1 507 510
133 2 89 90
134 1 89 91
135 1 89 92
136 1 84 87
137 1 84 88
138 2 84 89
139 1 744 747
140 1 744 748
141 2 744 749
142 2 749 750
143 1 749 751
144 1 749 752
145 2 247 248
146 1 247 249
147 1 247 250
148 1 266 269
149 1 266 270
150 2 266 271
151 1 502 505
152 1 502 506
153 2 502 507
154 1 90 93
155 1 90 94
156 2 90 95
157 1 756 759
158 1 756 760
159 2 756 761
160 1 508 511
161 1 508 512
162 2 508 513
163 2 259 260
164 1 259 261
165 1 259 262
166 1 254 257
167 1 254 258
168 2 254 259
169 2 513 514
170 1 513 515
171 1 513 516
172 2 737 738
173 1 737 739
174 1 737 740
175 2 101 102
176 1 101 103
177 1 101 104
178 2 289 290
179 1 289 291
180 1 289 292
181 1 738 741
182 1 738 742
183 2 738 743
184 2 283 284
185 1 283 285
186 1 283 286
187 1 284 287
188 1 284 288
189 2 284 289
190 2 743 744
191 1 743 745
192 1 743 746
193 2 755 756
194 1 755 757
195 1 755 758
196 1 290 293
197 1 290 294
198 2 290 295
199 2 241 242
200 1 241 243
201 1 241 244
202 2 83 84
203 1 83 85
204 1 83 86
205 2 95 96
206 1 95 97
207 1 95 98
208 2 295 296
209 1 295 297
210 1 295 298
211 1 660 663
212 1 660 664
213 2 660 665
214 2 659 660
215 1 659 661
216 1 659 662
217 1 18 21
218 1 18 22
219 2 18 23
220 2 665 666
221 1 665 667
222 1 665 668
223 2 23 24
224 1 23 25
225 1 23 26
226 1 666 669
227 1 666 670
228 2 666 671
229 1 654 657
230 1 654 658
231 2 654 659
232 2 29 30
233 1 29 31
234 1 29 32
235 1 30 33
236 1 30 34
237 2 30 35
238 1 24 27
239 1 24 28
240 2 24 29
241 1 532 535
242 1 532 536
243 2 532 537
244 2 537 538
245 1 537 539
246 1 537 540
247 2 653 654
248 1 653 655
249 1 653 656
250 2 17 18
251 1 17 19
252 1 17 20
253 2 35 36
254 1 35 37
255 1 35 38
256 1 36 39
257 1 36 40
258 2 36 41
259 2 531 532
260 1 531 533
261 1 531 534
262 2 185 186
263 1 185 187
264 1 185 188
265 1 42 45
266 1 42 46
267 2 42 47
268 1 436 439
269 1 436 440
270 2 436 441
271 2 671 672
272 1 671 673
273 1 671 674
274 2 41 42
275 1 41 43
276 1 41 44
277 1 636 639
278 1 636 640
279 2 636 641
280 2 191 192
281 1 191 193
282 1 191 194
283 1 642 645
284 1 642 646
285 2 642 647
286 2 641 642
287 1 641 643
288 1 641 644
289 1 672 675
290 1 672 676
291 2 672 677
292 1 538 541
293 1 538 542
294 2 538 543
295 1 186 189
296 1 186 190
297 2 186 191
298 1 526 529
299 1 526 530
300 2 526 531
301 2 435 436
302 1 435 437
303 1 435 438
304 1 180 183
305 1 180 184
306 2 180 185
307 1 648 651
308 1 648 652
309 2 648 653
310 2 543 544
311 1 543 545
312 1 543 546
313 1 12 15
314 1 12 16
315 2 12 17
316 2 119 120
317 1 119 121
318 1 119 122
319 1 114 117
320 1 114 118
321 2 114 119
322 1 606 609
323 1 606 610
324 2 606 611
325 1 580 583
326 1 580 584
327 2 580 585
328 2 355 356
329 1 355 357
330 1 355 358
331 2 337 338
332 1 337 339
333 1 337 340
334 1 108 111
335 1 108 112
336 2 108 113
337 2 107 108
338 1 107 109
339 1 107 110
340 2 349 350
341 1 349 351
342 1 349 352
343 2 113 114
344 1 113 115
345 1 113 116
346 1 618 621
347 1 618 622
348 2 618 623
349 2 579 580
350 1 579 581
351 1 579 582
352 1 102 105
353 1 102 106
354 2 102 107
355 2 617 618
356 1 617 619
357 1 617 620
358 2 623 624
359 1 623 625
360 1 623 626
361 1 338 341
362 1 338 342
363 2 338 343
364 2 629 630
365 1 629 631
366 1 629 632
367 1 326 329
368 1 326 330
369 2 326 331
370 1 248 251
371 1 248 252
372 2 248 253
373 2 343 344
374 1 343 345
375 1 343 346
376 2 585 586
377 1 585 587
378 1 585 588
379 1 597 598
380 1 597 599
381 1 597 600
382 1 350 353
383 1 350 354
384 2 350 355
385 2 591 592
386 1 591 593
387 1 591 594
388 1 332 335
389 1 332 336
390 2 332 337
391 2 611 612
392 1 611 613
393 1 611 614
394 2 331 332
395 1 331 333
396 1 331 334
397 2 635 636
398 1 635 637
399 1 635 638
400 1 624 627
401 1 624 628
402 2 624 629
403 1 586 589
404 1 586 590
405 2 586 591
406 1 630 633
407 1 630 634
408 2 630 635
409 1 592 595
410 1 592 596
411 2 592 597
412 1 612 615
413 1 612 616
414 2 612 617
415 1 344 347
416 1 344 348
417 2 344 349
418 1 242 245
419 1 242 246
420 2 242 247
421 2 211 212
422 1 211 213
423 1 211 214
424 1 212 215
425 1 212 216
426 2 212 217
427 2 465 466
428 1 465 467
429 1 465 468
430 1 206 209
431 1 206 210
432 2 206 211
433 2 205 206
434 1 205 207
435 1 205 208
436 1 201 202
437 1 201 203
438 1 201 204
439 2 201 205
440 1 386 389
441 1 386 390
442 2 386 391
443 1 780 783
444 1 780 784
445 2 780 785
446 2 785 786
447 1 785 787
448 1 785 788
449 1 460 463
450 1 460 464
451 2 460 465
452 2 391 392
453 1 391 393
454 1 391 394
455 2 779 780
456 1 779 781
457 1 779 782
458 2 385 386
459 1 385 387
460 1 385 388
461 2 791 792
462 1 791 793
463 1 791 794
464 1 466 469
465 1 466 470
466 2 466 471
467 1 392 395
468 1 392 396
469 2 392 397
470 1 786 789
471 1 786 790
472 2 786 791
473 2 217 218
474 1 217 219
475 1 217 220
476 1 218 221
477 1 218 222
478 2 218 223
479 1 162 165
480 1 162 166
481 2 162 167
482 1 792 795
483 1 792 796
484 2 792 797
485 2 459 460
486 1 459 461
487 1 459 462
488 2 161 162
489 1 161 163
490 1 161 164
491 1 797 798
492 1 797 799
493 1 797 800
494 2 471 472
495 1 471 473
496 1 471 474
497 1 397 398
498 1 397 399
499 1 397 400
500 2 689 690
501 1 689 691
502 1 689 692
503 1 454 457
504 1 454 458
505 2 454 459
506 1 380 383
507 1 380 384
508 2 380 385
509 2 167 168
510 1 167 169
511 1 167 170
512 1 690 693
513 1 690 694
514 2 690 695
515 1 732 735
516 1 732 736
517 2 732 737
518 1 374 377
519 1 374 378
520 2 374 379
521 2 695 696
522 1 695 697
523 1 695 698
524 1 774 777
525 1 774 778
526 2 774 779
527 2 361 362
528 1 361 363
529 1 361 364
530 2 379 380
531 1 379 381
532 1 379 382
533 1 714 717
534 1 714 718
535 2 714 719
536 1 296 299
537 1 296 300
538 2 296 301
539 2 367 368
540 1 367 369
541 1 367 370
542 2 725 726
543 1 725 727
544 1 725 728
545 1 726 729
546 1 726 730
547 2 726 731
548 2 731 732
549 1 731 733
550 1 731 734
551 2 301 302
552 1 301 303
553 1 301 304
554 1 362 365
555 1 362 366
556 2 362 367
557 2 307 308
558 1 307 309
559 1 307 310
560 2 701 702
561 1 701 703
562 1 701 704
563 2 265 266
564 1 265 267
565 1 265 268
566 2 719 720
567 1 719 721
568 1 719 722
569 1 762 765
570 1 762 766
571 2 762 767
572 1 720 723
573 1 720 724
574 2 720 725
575 1 768 771
576 1 768 772
577 2 768 773
578 2 713 714
579 1 713 715
580 1 713 716
581 1 696 699
582 1 696 700
583 2 696 701
584 1 708 711
585 1 708 712
586 2 708 713
587 1 702 705
588 1 702 706
589 2 702 707
590 2 373 374
591 1 373 375
592 1 373 376
593 1 368 371
594 1 368 372
595 2 368 373
596 2 707 708
597 1 707 709
598 1 707 710
599 2 767 768
600 1 767 769
601 1 767 770
602 1 302 305
603 1 302 306
604 2 302 307
605 2 773 774
606 1 773 775
607 1 773 776
608 2 761 762
609 1 761 763
610 1 761 764
611 2 131 132
612 1 131 133
613 1 131 134
614 1 132 135
615 1 132 136
616 2 132 137
617 2 137 138
618 1 137 139
619 1 137 140
620 1 138 141
621 1 138 142
622 2 138 143
623 2 143 144
624 1 143 145
625 1 143 146
626 1 144 147
627 1 144 148
628 2 144 149
629 2 477 478
630 1 477 479
631 1 477 480
632 2 549 550
633 1 549 551
634 1 549 552
635 1 544 547
636 1 544 548
637 2 544 549
638 2 149 150
639 1 149 151
640 1 149 152
641 1 550 553
642 1 550 554
643 2 550 555
644 1 150 153
645 1 150 154
646 2 150 155
647 1 401 402
648 1 401 403
649 1 401 404
650 2 401 405
651 2 155 156
652 1 155 157
653 1 155 158
654 1 6 9
655 1 6 10
656 2 6 11
657 1 197 198
658 1 197 199
659 1 197 200
660 1 126 129
661 1 126 130
662 2 126 131
663 2 555 556
664 1 555 557
665 1 555 558
666 1 601 602
667 1 601 603
668 1 601 604
669 2 601 605
670 1 478 481
671 1 478 482
672 2 478 483
673 1 1 2
674 1 1 3
675 1 1 4
676 2 1 5
677 2 5 6
678 1 5 7
679 1 5 8
680 1 472 475
681 1 472 476
682 2 472 477
683 2 605 606
684 1 605 607
685 1 605 608
686 1 192 195
687 1 192 196
688 2 192 197
689 1 156 159
690 1 156 160
691 2 156 161
692 2 11 12
693 1 11 13
694 1 11 14
695 2 647 648
696 1 647 649
697 1 647 650
698 2 405 406
699 1 405 407
700 1 405 408
701 2 417 418
702 1 417 419
703 1 417 420
704 1 308 311
705 1 308 312
706 2 308 313
707 1 556 559
708 1 556 560
709 2 556 561
710 1 562 565
711 1 562 566
712 2 562 567
713 1 568 571
714 1 568 572
715 2 568 573
716 1 490 493
717 1 490 494
718 2 490 495
719 1 424 427
720 1 424 428
721 2 424 429
722 1 120 123
723 1 120 124
724 2 120 125
725 2 125 126
726 1 125 127
727 1 125 128
728 2 495 496
729 1 495 497
730 1 495 498
731 1 412 415
732 1 412 416
733 2 412 417
734 1 496 499
735 1 496 500
736 2 496 501
737 2 483 484
738 1 483 485
739 1 483 486
740 2 423 424
741 1 423 425
742 1 423 426
743 2 501 502
744 1 501 503
745 1 501 504
746 2 325 326
747 1 325 327
748 1 325 328
749 2 573 574
750 1 573 575
751 1 573 576
752 1 484 487
753 1 484 488
754 2 484 489
755 2 429 430
756 1 429 431
757 1 429 432
758 2 561 562
759 1 561 563
760 1 561 564
761 2 319 320
762 1 319 321
763 1 319 322
764 2 313 314
765 1 313 315
766 1 313 316
767 1 314 317
768 1 314 318
769 2 314 319
770 1 356 359
771 1 356 360
772 2 356 361
773 1 574 577
774 1 574 578
775 2 574 579
776 1 430 433
777 1 430 434
778 2 430 435
779 1 418 421
780 1 418 422
781 2 418 423
782 1 320 323
783 1 320 324
784 2 320 325
785 2 567 568
786 1 567 569
787 1 567 570
788 2 489 490
789 1 489 491
790 1 489 492
791 1 406 409
792 1 406 410
793 2 406 411
794 2 411 412
795 1 411 413
796 1 411 414

Angles

1 2 54 53 55
2 2 54 53 56
3 3 54 53 48
4 1 55 53 56
5 2 55 53 48
6 2 56 53 48
7 2 53 54 57
8 2 53 54 58
9 3 53 54 59
10 1 57 54 58
11 2 57 54 59
12 2 58 54 59
13 2 60 59 61
14 2 60 59 62
15 3 60 59 54
16 1 61 59 62
17 2 61 59 54
18 2 62 59 54
19 2 448 447 449
20 2 448 447 450
21 3 448 447 442
22 1 449 447 450
23 2 449 447 442
24 2 450 447 442
25 2 59 60 63
26 2 59 60 64
27 3 59 60 65
28 1 63 60 64
29 2 63 60 65
30 2 64 60 65
31 2 66 65 67
32 2 66 65 68
33 3 66 65 60
34 1 67 65 68
35 2 67 65 60
36 2 68 65 60
37 2 65 66 69
38 2 65 66 70
39 3 65 66 71
40 1 69 66 70
41 2 69 66 71
42 2 70 66 71
43 2 72 71 73
44 2 72 71 74
45 3 72 71 66
46 1 73 71 74
47 2 73 71 66
48 2 74 71 66
49 2 174 173 175
50 2 174 173 176
51 3 174 173 168
52 1 175 173 176
53 2 175 173 168
54 2 176 173 168
55 2 447 448 451
56 2 447 448 452
57 3 447 448 453
58 1 451 448 452
59 2 451 448 453
60 2 452 448 453
61 2 173 174 177
62 2 173 174 178
63 3 173 174 179
64 1 177 174 178
65 2 177 174 179
66 2 178 174 179
67 2 684 683 685
68 2 684 683 686
69 3 684 683 678
70 1 685 683 686
71 2 685 683 678
72 2 686 683 678
73 2 677 678 681
74 2 677 678 682
75 3 677 678 683
76 1 681 678 682
77 2 681 678 683
78 2 682 678 683
79 2 271 272 275
80 2 271 272 276
81 3 271 272 277
82 1 275 272 276
83 2 275 272 277
84 2 276 272 277
85 2 526 525 527
86 2 526 525 528
87 3 526 525 520
88 1 527 525 528
89 2 527 525 520
90 2 528 525 520
91 2 223 224 227
92 2 223 224 228
93 3 223 224 229
94 1 227 224 228
95 2 227 224 229
96 2 228 224 229
97 2 71 72 75
98 2 71 72 76
99 3 71 72 77
100 1 75 72 76
101 2 75 72 77
102 2 76 72 77
103 2 272 271 273
104 2 272 271 274
105 3 272 271 266
106 1 273 271 274
107 2 273 271 266
108 2 274 271 266
109 2 441 442 445
110 2 441 442 446
111 3 441 442 447
112 1 445 442 446
113 2 445 442 447
114 2 446 442 447
115 2 236 235 237
116 2 236 235 238
117 3 236 235 230
118 1 237 235 238
119 2 237 235 230
120 2 238 235 230
121 2 230 229 231
122 2 230 229 232
123 3 230 229 224
124 1 231 229 232
125 2 231 229 224
126 2 232 229 224
127 2 167 168 171
128 2 167 168 172
129 3 167 168 173
130 1 171 168 172
131 2 171 168 173
132 2 172 168 173
133 2 78 77 79
134 2 78 77 80
135 3 78 77 72
136 1 79 77 80
137 2 79 77 72
138 2 80 77 72
139 2 47 48 51
140 2 47 48 52
141 3 47 48 53
142 1 51 48 52
143 2 51 48 53
144 2 52 48 53
145 2 520 519 521
146 2 520 519 522
147 3 520 519 514
148 1 521 519 522
149 2 521 519 514
150 2 522 519 514
151 2 229 230 233
152 2 229 230 234
153 3 229 230 235
154 1 233 230 234
155 2 233 230 235
156 2 234 230 235
157 2 678 677 679
158 2 678 677 680
159 3 678 677 672
160 1 679 677 680
161 2 679 677 672
162 2 680 677 672
163 2 683 684 687
164 2 683 684 688
165 3 683 684 689
166 1 687 684 688
167 2 687 684 689
168 2 688 684 689
169 2 454 453 455
170 2 454 453 456
171 3 454 453 448
172 1 455 453 456
173 2 455 453 448
174 2 456 453 448
175 2 48 47 49
176 2 48 47 50
177 3 48 47 42
178 1 49 47 50
179 2 49 47 42
180 2 50 47 42
181 2 224 223 225
182 2 224 223 226
183 3 224 223 218
184 1 225 223 226
185 2 225 223 218
186 2 226 223 218
187 2 180 179 181
188 2 180 179 182
189 3 180 179 174
190 1 181 179 182
191 2 181 179 174
192 2 182 179 174
193 2 442 441 443
194 2 442 441 444
195 3 442 441 436
196 1 443 441 444
197 2 443 441 436
198 2 444 441 436
199 2 235 236 239
200 2 235 236 240
201 3 235 236 241
202 1 239 236 240
203 2 239 236 241
204 2 240 236 241
205 2 77 78 81
206 2 77 78 82
207 3 77 78 83
208 1 81 78 82
209 2 81 78 83
210 2 82 78 83
211 2 519 520 523
212 2 519 520 524
213 3 519 520 525
214 1 523 520 524
215 2 523 520 525
216 2 524 520 525
217 2 95 96 99
218 2 95 96 100
219 3 95 96 101
220 1 99 96 100
221 2 99 96 101
222 2 100 96 101
223 2 259 260 263
224 2 259 260 264
225 3 259 260 265
226 1 263 260 264
227 2 263 260 265
228 2 264 260 265
229 2 278 277 279
230 2 278 277 280
231 3 278 277 272
232 1 279 277 280
233 2 279 277 272
234 2 280 277 272
235 2 254 253 255
236 2 254 253 256
237 3 254 253 248
238 1 255 253 256
239 2 255 253 248
240 2 256 253 248
241 2 513 514 517
242 2 513 514 518
243 3 513 514 519
244 1 517 514 518
245 2 517 514 519
246 2 518 514 519
247 2 749 750 753
248 2 749 750 754
249 3 749 750 755
250 1 753 750 754
251 2 753 750 755
252 2 754 750 755
253 2 277 278 281
254 2 277 278 282
255 3 277 278 283
256 1 281 278 282
257 2 281 278 283
258 2 282 278 283
259 2 508 507 509
260 2 508 507 510
261 3 508 507 502
262 1 509 507 510
263 2 509 507 502
264 2 510 507 502
265 2 90 89 91
266 2 90 89 92
267 3 90 89 84
268 1 91 89 92
269 2 91 89 84
270 2 92 89 84
271 2 83 84 87
272 2 83 84 88
273 3 83 84 89
274 1 87 84 88
275 2 87 84 89
276 2 88 84 89
277 2 743 744 747
278 2 743 744 748
279 3 743 744 749
280 1 747 744 748
281 2 747 744 749
282 2 748 744 749
283 2 750 749 751
284 2 750 749 752
285 3 750 749 744
286 1 751 749 752
287 2 751 749 744
288 2 752 749 744
289 2 248 247 249
290 2 248 247 250
291 3 248 247 242
292 1 249 247 250
293 2 249 247 242
294 2 250 247 242
295 2 265 266 269
296 2 265 266 270
297 3 265 266 271
298 1 269 266 270
299 2 269 266 271
300 2 270 266 271
301 2 501 502 505
302 2 501 502 506
303 3 501 502 507
304 1 505 502 506
305 2 505 502 507
306 2 506 502 507
307 2 89 90 93
308 2 89 90 94
309 3 89 90 95
310 1 93 90 94
311 2 93 90 95
312 2 94 90 95
313 2 755 756 759
314 2 755 756 760
315 3 755 756 761
316 1 759 756 760
317 2 759 756 761
318 2 760 756 761
319 2 507 508 511
320 2 507 508 512
321 3 507 508 513
322 1 511 508 512
323 2 511 508 513
324 2 512 508 513
325 2 260 259 261
326 2 260 259 262
327 3 260 259 254
328 1 261 259 262
329 2 261 259 254
330 2 262 259 254
331 2 253 254 257
332 2 253 254 258
333 3 253 254 259
334 1 257 254 258
335 2 257 254 259
336 2 258 254 259
337 2 514 513 515
338 2 514 513 516
339 3 514 513 508
340 1 515 513 516
341 2 515 513 508
342 2 516 513 508
343 2 738 737 739
344 2 738 737 740
345 3 738 737 732
346 1 739 737 740
347 2 739 737 732
348 2 740 737 732
349 2 102 101 103
350 2 102 101 104
351 3 102 101 96
352 1 103 101 104
353 2 103 101 96
354 2 104 101 96
355 2 290 289 291
356 2 290 289 292
357 3 290 289 284
358 1 291 289 292
359 2 291 289 284
360 2 292 289 284
361 2 737 738 741
362 2 737 738 742
363 3 737 738 743
364 1 741 738 742
365 2 741 738 743
366 2 742 738 743
367 2 284 283 285
368 2 284 283 286
369 3 284 283 278
370 1 285 283 286
371 2 285 283 278
372 2 286 283 278
373 2 283 284 287
374 2 283 284 288
375 3 283 284 289
376 1 287 284 288
377 2 287 284 289
378 2 288 284 289
379 2 744 743 745
380 2 744 743 746
381 3 744 743 738
382 1 745 743 746
383 2 745 743 738
384 2 746 743 738
385 2 756 755 757
386 2 756 755 758
387 3 756 755 750
388 1 757 755 758
389 2 757 755 750
390 2 758 755 750
391 2 289 290 293
392 2 289 290 294
393 3 289 290 295
394 1 293 290 294
395 2 293 290 295
396 2 294 290 295
397 2 242 241 243
398 2 242 241 244
399 3 242 241 236
400 1 243 241 244
401 2 243 241 236
402 2 244 241 236
403 2 84 83 85
404 2 84 83 86
405 3 84 83 78
406 1 85 83 86
407 2 85 83 78
408 2 86 83 78
409 2 96 95 97
410 2 96 95 98
411 3 96 95 90
412 1 97 95 98
413 2 97 95 90
414 2 98 95 90
415 2 296 295 297
416 2 296 295 298
417 3 296 295 290
418 1 297 295 298
419 2 297 295 290
420 2 298 295 290
421 2 659 660 663
422 2 659 660 664
423 3 659 660 665
424 1 663 660 664
425 2 663 660 665
426 2 664 660 665
427 2 660 659 661
428 2 660 659 662
429 3 660 659 654
430 1 661 659 662
431 2 661 659 654
432 2 662 659 654
433 2 17 18 21
434 2 17 18 22
435 3 17 18 23
436 1 21 18 22
437 2 21 18 23
438 2 22 18 23
439 2 666 665 667
440 2 666 665 668
441 3 666 665 660
442 1 667 665 668
443 2 667 665 660
444 2 668 665 660
445 2 24 23 25
446 2 24 23 26
447 3 24 23 18
448 1 25 23 26
449 2 25 23 18
450 2 26 23 18
451 2 665 666 669
452 2 665 666 670
453 3 665 666 671
454 1 669 666 670
455 2 669 666 671
456 2 670 666 671
457 2 653 654 657
458 2 653 654 658
459 3 653 654 659
460 1 657 654 658
461 2 657 654 659
462 2 658 654 659
463 2 30 29 31
464 2 30 29 32
465 3 30 29 24
466 1 31 29 32
467 2 31 29 24
468 2 32 29 24
469 2 29 30 33
470 2 29 30 34
471 3 29 30 35
472 1 33 30 34
473 2 33 30 35
474 2 34 30 35
475 2 23 24 27
476 2 23 24 28
477 3 23 24 29
478 1 27 24 28
479 2 27 24 29
480 2 28 24 29
481 2 531 532 535
482 2 531 532 536
483 3 531 532 537
484 1 535 532 536
485 2 535 532 537
486 2 536 532 537
487 2 538 537 539
488 2 538 537 540
489 3 538 537 532
490 1 539 537 540
491 2 539 537 532
492 2 540 537 532
493 2 654 653 655
494 2 654 653 656
495 3 654 653 648
496 1 655 653 656
497 2 655 653 648
498 2 656 653 648
499 2 18 17 19
500 2 18 17 20
501 3 18 17 12
502 1 19 17 20
503 2 19 17 12
504 2 20 17 12
505 2 36 35 37
506 2 36 35 38
507 3 36 35 30
508 1 37 35 38
509 2 37 35 30
510 2 38 35 30
511 2 35 36 39
512 2 35 36 40
513 3 35 36 41
514 1 39 36 40
515 2 39 36 41
516 2 40 36 41
517 2 532 531 533
518 2 532 531 534
519 3 532 531 526
520 1 533 531 534
521 2 533 531 526
522 2 534 531 526
523 2 186 185 187
524 2 186 185 188
525 3 186 185 180
526 1 187 185 188
527 2 187 185 180
528 2 188 185 180
529 2 41 42 45
530 2 41 42 46
531 3 41 42 47
532 1 45 42 46
533 2 45 42 47
534 2 46 42 47
535 2 435 436 439
536 2 435 436 440
537 3 435 436 441
538 1 439 436 440
539 2 439 436 441
540 2 440 436 441
541 2 672 671 673
542 2 672 671 674
543 3 672 671 666
544 1 673 671 674
545 2 673 671 666
546 2 674 671 666
547 2 42 41 43
548 2 42 41 44
549 3 42 41 36
550 1 43 41 44
551 2 43 41 36
552 2 44 41 36
553 2 635 636 639
554 2 635 636 640
555 3 635 636 641
556 1 639 636 640
557 2 639 636 641
558 2 640 636 641
559 2 192 191 193
560 2 192 191 194
561 3 192 191 186
562 1 193 191 194
563 2 193 191 186
564 2 194 191 186
565 2 641 642 645
566 2 641 642 646
567 3 641 642 647
568 1 645 642 646
569 2 645 642 647
570 2 646 642 647
571 2 642 641 643
572 2 642 641 644
573 3 642 641 636
574 1 643 641 644
575 2 643 641 636
576 2 644 641 636
577 2 671 672 675
578 2 671 672 676
579 3 671 672 677
580 1 675 672 676
581 2 675 672 677
582 2 676 672 677
583 2 537 538 541
584 2 537 538 542
585 3 537 538 543
586 1 541 538 542
587 2 541 538 543
588 2 542 538 543
589 2 185 186 189
590 2 185 186 190
591 3 185 186 191
592 1 189 186 190
593 2 189 186 191
594 2 190 186 191
595 2 525 526 529
596 2 525 526 530
597 3 525 526 531
598 1 529 526 530
599 2 529 526 531
600 2 530 526 531
601 2 436 435 437
602 2 436 435 438
603 3 436 435 430
604 1 437 435 438
605 2 437 435 430
606 2 438 435 430
607 2 179 180 183
608 2 179 180 184
609 3 179 180 185
610 1 183 180 184
611 2 183 180 185
612 2 184 180 185
613 2 647 648 651
614 2 647 648 652
615 3 647 648 653
616 1 651 648 652
617 2 651 648 653
618 2 652 648 653
619 2 544 543 545
620 2 544 543 546
621 3 544 543 538
622 1 545 543 546
623 2 545 543 538
624 2 546 543 538
625 2 11 12 15
626 2 11 12 16
627 3 11 12 17
628 1 15 12 16
629 2 15 12 17
630 2 16 12 17
631 2 120 119 121
632 2 120 119 122
633 3 120 119 114
634 1 121 119 122
635 2 121 119 114
636 2 122 119 114
637 2 113 114 117
638 2 113 114 118
639 3 113 114 119
640 1 117 114 118
641 2 117 114 119
642 2 118 114 119
643 2 605 606 609
644 2 605 606 610
645 3 605 606 611
646 1 609 606 610
647 2 609 606 611
648 2 610 606 611
649 2 579 580 583
650 2 579 580 584
651 3 579 580 585
652 1 583 580 584
653 2 583 580 585
654 2 584 580 585
655 2 356 355 357
656 2 356 355 358
657 3 356 355 350
658 1 357 355 358
659 2 357 355 350
660 2 358 355 350
661 2 338 337 339
662 2 338 337 340
663 3 338 337 332
664 1 339 337 340
665 2 339 337 332
666 2 340 337 332
667 2 107 108 111
668 2 107 108 112
669 3 107 108 113
670 1 111 108 112
671 2 111 108 113
672 2 112 108 113
673 2 108 107 109
674 2 108 107 110
675 3 108 107 102
676 1 109 107 110
677 2 109 107 102
678 2 110 107 102
679 2 350 349 351
680 2 350 349 352
681 3 350 349 344
682 1 351 349 352
683 2 351 349 344
684 2 352 349 344
685 2 114 113 115
686 2 114 113 116
687 3 114 113 108
688 1 115 113 116
689 2 115 113 108
690 2 116 113 108
691 2 617 618 621
692 2 617 618 622
693 3 617 618 623
694 1 621 618 622
695 2 621 618 623
696 2 622 618 623
697 2 580 579 581
698 2 580 579 582
699 3 580 579 574
700 1 581 579 582
701 2 581 579 574
702 2 582 579 574
703 2 101 102 105
704 2 101 102 106
705 3 101 102 107
706 1 105 102 106
707 2 105 102 107
708 2 106 102 107
709 2 618 617 619
710 2 618 617 620
711 3 618 617 612
712 1 619 617 620
713 2 619 617 612
714 2 620 617 612
715 2 624 623 625
716 2 624 623 626
717 3 624 623 618
718 1 625 623 626
719 2 625 623 618
720 2 626 623 618
721 2 337 338 341
722 2 337 338 342
723 3 337 338 343
724 1 341 338 342
725 2 341 338 343
726 2 342 338 343
727 2 630 629 631
728 2 630 629 632
729 3 630 629 624
730 1 631 629 632
731 2 631 629 624
732 2 632 629 624
733 2 325 326 329
734 2 325 326 330
735 3 325 326 331
736 1 329 326 330
737 2 329 326 331
738 2 330 326 331
739 2 247 248 251
740 2 247 248 252
741 3 247 248 253
742 1 251 248 252
743 2 251 248 253
744 2 252 248 253
745 2 344 343 345
746 2 344 343 346
747 3 344 343 338
748 1 345 343 346
749 2 345 343 338
750 2 346 343 338
751 2 586 585 587
752 2 586 585 588
753 3 586 585 580
754 1 587 585 588
755 2 587 585 580
756 2 588 585 580
757 1 598 597 599
758 1 598 597 600
759 2 598 597 592
760 1 599 597 600
761 2 599 597 592
762 2 600 597 592
763 2 349 350 353
764 2 349 350 354
765 3 349 350 355
766 1 353 350 354
767 2 353 350 355
768 2 354 350 355
769 2 592 591 593
770 2 592 591 594
771 3 592 591 586
772 1 593 591 594
773 2 593 591 586
774 2 594 591 586
775 2 331 332 335
776 2 331 332 336
777 3 331 332 337
778 1 335 332 336
779 2 335 332 337
780 2 336 332 337
781 2 612 611 613
782 2 612 611 614
783 3 612 611 606
784 1 613 611 614
785 2 613 611 606
786 2 614 611 606
787 2 332 331 333
788 2 332 331 334
789 3 332 331 326
790 1 333 331 334
791 2 333 331 326
792 2 334 331 326
793 2 636 635 637
794 2 636 635 638
795 3 636 635 630
796 1 637 635 638
797 2 637 635 630
798 2 638 635 630
799 2 623 624 627
800 2 623 624 628
801 3 623 624 629
802 1 627 624 628
803 2 627 624 629
804 2 628 624 629
805 2 585 586 589
806 2 585 586 590
807 3 585 586 591
808 1 589 586 590
809 2 589 586 591
810 2 590 586 591
811 2 629 630 633
812 2 629 630 634
813 3 629 630 635
814 1 633 630 634
815 2 633 630 635
816 2 634 630 635
817 2 591 592 595
818 2 591 592 596
819 3 591 592 597
820 1 595 592 596
821 2 595 592 597
822 2 596 592 597
823 2 611 612 615
824 2 611 612 616
825 3 611 612 617
826 1 615 612 616
827 2 615 612 617
828 2 616 612 617
829 2 343 344 347
830 2 343 344 348
831 3 343 344 349
832 1 347 344 348
833 2 347 344 349
834 2 348 344 349
835 2 241 242 245
836 2 241 242 246
837 3 241 242 247
838 1 245 242 246
839 2 245 242 247
840 2 246 242 247
841 2 212 211 213
842 2 212 211 214
843 3 212 211 206
844 1 213 211 214
845 2 213 211 206
846 2 214 211 206
847 2 211 212 215
848 2 211 212 216
849 3 211 212 217
850 1 215 212 216
851 2 215 212 217
852 2 216 212 217
853 2 466 465 467
854 2 466 465 468
855 3 466 465 460
856 1 467 465 468
857 2 467 465 460
858 2 468 465 460
859 2 205 206 209
860 2 205 206 210
861 3 205 206 211
862 1 209 206 210
863 2 209 206 211
864 2 210 206 211
865 2 206 205 207
866 2 206 205 208
867 3 206 205 201
868 1 207 205 208
869 2 207 205 201
870 2 208 205 201
871 1 202 201 203
872 1 202 201 204
873 2 202 201 205
874 1 203 201 204
875 2 203 201 205
876 2 204 201 205
877 2 385 386 389
878 2 385 386 390
879 3 385 386 391
880 1 389 386 390
881 2 389 386 391
882 2 390 386 391
883 2 779 780 783
884 2 779 780 784
885 3 779 780 785
886 1 783 780 784
887 2 783 780 785
888 2 784 780 785
889 2 786 785 787
890 2 786 785 788
891 3 786 785 780
892 1 787 785 788
893 2 787 785 780
894 2 788 785 780
895 2 459 460 463
896 2 459 460 464
897 3 459 460 465
898 1 463 460 464
899 2 463 460 465
900 2 464 460 465
901 2 392 391 393
902 2 392 391 394
903 3 392 391 386
904 1 393 391 394
905 2 393 391 386
906 2 394 391 386
907 2 780 779 781
908 2 780 779 782
909 3 780 779 774
910 1 781 779 782
911 2 781 779 774
912 2 782 779 774
913 2 386 385 387
914 2 386 385 388
915 3 386 385 380
916 1 387 385 388
917 2 387 385 380
918 2 388 385 380
919 2 792 791 793
920 2 792 791 794
921 3 792 791 786
922 1 793 791 794
923 2 793 791 786
924 2 794 791 786
925 2 465 466 469
926 2 465 466 470
927 3 465 466 471
928 1 469 466 470
929 2 469 466 471
930 2 470 466 471
931 2 391 392 395
932 2 391 392 396
933 3 391 392 397
934 1 395 392 396
935 2 395 392 397
936 2 396 392 397
937 2 785 786 789
938 2 785 786 790
939 3 785 786 791
940 1 789 786 790
941 2 789 786 791
942 2 790 786 791
943 2 218 217 219
944 2 218 217 220
945 3 218 217 212
946 1 219 217 220
947 2 219 217 212
948 2 220 217 212
949 2 217 218 221
950 2 217 218 222
951 3 217 218 223
952 1 221 218 222
953 2 221 218 223
954 2 222 218 223
955 2 161 162 165
956 2 161 162 166
957 3 161 162 167
958 1 165 162 166
959 2 165 162 167
960 2 166 162 167
961 2 791 792 795
962 2 791 792 796
963 3 791 792 797
964 1 795 792 796
965 2 795 792 797
966 2 796 792 797
967 2 460 459 461
968 2 460 459 462
969 3 460 459 454
970 1 461 459 462
971 2 461 459 454
972 2 462 459 454
973 2 162 161 163
974 2 162 161 164
975 3 162 161 156
976 1 163 161 164
977 2 163 161 156
978 2 164 161 156
979 1 798 797 799
980 1 798 797 800
981 2 798 797 792
982 1 799 797 800
983 2 799 797 792
984 2 800 797 792
985 2 472 471 473
986 2 472 471 474
987 3 472 471 466
988 1 473 471 474
989 2 473 471 466
990 2 474 471 466
991 1 398 397 399
992 1 398 397 400
993 2 398 397 392
994 1 399 397 400
995 2 399 397 392
996 2 400 397 392
997 2 690 689 691
998 2 690 689 692
999 3 690 689 684
1000 1 691 689 692
1001 2 691 689 684
1002 2 692 689 684
1003 2 453 454 457
1004 2 453 454 458
1005 3 453 454 459
1006 1 457 454 458
1007 2 457 454 459
1008 2 458 454 459
1009 2 379 380 383
1010 2 379 380 384
1011 3 379 380 385
1012 1 383 380 384
1013 2 383 380 385
1014 2 384 380 385
1015 2 168 167 169
1016 2 168 167 170
1017 3 168 167 162
1018 1 169 167 170
1019 2 169 167 162
1020 2 170 167 162
1021 2 689 690 693
1022 2 689 690 694
1023 3 689 690 695
1024 1 693 690 694
1025 2 693 690 695
1026 2 694 690 695
1027 2 731 732 735
1028 2 731 732 736
1029 3 731 732 737
1030 1 735 732 736
1031 2 735 732 737
1032 2 736 732 737
1033 2 373 374 377
1034 2 373 374 378
1035 3 373 374 379
1036 1 377 374 378
1037 2 377 374 379
1038 2 378 374 379
1039 2 696 695 697
1040 2 696 695 698
1041 3 696 695 690
1042 1 697 695 698
1043 2 697 695 690
1044 2 698 695 690
1045 2 773 774 777
1046 2 773 774 778
1047 3 773 774 779
1048 1 777 774 778
1049 2 777 774 779
1050 2 778 774 779
1051 2 362 361 363
1052 2 362 361 364
1053 3 362 361 356
1054 1 363 361 364
1055 2 363 361 356
1056 2 364 361 356
1057 2 380 379 381
1058 2 380 379 382
1059 3 380 379 374
1060 1 381 379 382
1061 2 381 379 374
1062 2 382 379 374
1063 2 713 714 717
1064 2 713 714 718
1065 3 713 714 719
1066 1 717 714 718
1067 2 717 714 719
1068 2 718 714 719
1069 2 295 296 299
1070 2 295 296 300
1071 3 295 296 301
1072 1 299 296 300
1073 2 299 296 301
1074 2 300 296 301
1075 2 368 367 369
1076 2 368 367 370
1077 3 368 367 362
1078 1 369 367 370
1079 2 369 367 362
1080 2 370 367 362
1081 2 726 725 727
1082 2 726 725 728
1083 3 726 725 720
1084 1 727 725 728
1085 2 727 725 720
1086 2 728 725 720
1087 2 725 726 729
1088 2 725 726 730
1089 3 725 726 731
1090 1 729 726 730
1091 2 729 726 731
1092 2 730 726 731
1093 2 732 731 733
1094 2 732 731 734
1095 3 732 731 726
1096 1 733 731 734
1097 2 733 731 726
1098 2 734 731 726
1099 2 302 301 303
1100 2 302 301 304
1101 3 302 301 296
1102 1 303 301 304
1103 2 303 301 296
1104 2 304 301 296
1105 2 361 362 365
1106 2 361 362 366
1107 3 361 362 367
1108 1 365 362 366
1109 2 365 362 367
1110 2 366 362 367
1111 2 308 307 309
1112 2 308 307 310
1113 3 308 307 302
1114 1 309 307 310
1115 2 309 307 302
1116 2 310 307 302
1117 2 702 701 703
1118 2 702 701 704
1119 3 702 701 696
1120 1 703 701 704
1121 2 703 701 696
1122 2 704 701 696
1123 2 266 265 267
1124 2 266 265 268
1125 3 266 265 260
1126 1 267 265 268
1127 2 267 265 260
1128 2 268 265 260
1129 2 720 719 721
1130 2 720 719 722
1131 3 720 719 714
1132 1 721 719 722
1133 2 721 719 714
1134 2 722 719 714
1135 2 761 762 765
1136 2 761 762 766
1137 3 761 762 767
1138 1 765 762 766
1139 2 765 762 767
1140 2 766 762 767
1141 2 719 720 723
1142 2 719 720 724
1143 3 719 720 725
1144 1 723 720 724
1145 2 723 720 725
1146 2 724 720 725
1147 2 767 768 771
1148 2 767 768 772
1149 3 767 768 773
1150 1 771 768 772
1151 2 771 768 773
1152 2 772 768 773
1153 2 714 713 715
1154 2 714 713 716
1155 3 714 713 708
1156 1 715 713 716
1157 2 715 713 708
1158 2 716 713 708
1159 2 695 696 699
1160 2 695 696 700
1161 3 695 696 701
1162 1 699 696 700
1163 2 699 696 701
1164 2 700 696 701
1165 2 707 708 711
1166 2 707 708 712
1167 3 707 708 713
1168 1 711 708 712
1169 2 711 708 713
1170 2 712 708 713
1171 2 701 702 705
1172 2 701 702 706
1173 3 701 702 707
1174 1 705 702 706
1175 2 705 702 707
1176 2 706 702 707
1177 2 374 373 375
1178 2 374 373 376
1179 3 374 373 368
1180 1 375 373 376
1181 2 375 373 368
1182 2 376 373 368
1183 2 367 368 371
1184 2 367 368 372
1185 3 367 368 373
1186 1 371 368 372
1187 2 371 368 373
1188 2 372 368 373
1189 2 708 707 709
1190 2 708 707 710
1191 3 708 707 702
1192 1 709 707 710
1193 2 709 707 702
1194 2 710 707 702
1195 2 768 767 769
1196 2 768 767 770
1197 3 768 767 762
1198 1 769 767 770
1199 2 769 767 762
1200 2 770 767 762
1201 2 301 302 305
1202 2 301 302 306
1203 3 301 302 307
1204 1 305 302 306
1205 2 305 302 307
1206 2 306 302 307
1207 2 774 773 775
1208 2 774 773 776
1209 3 774 773 768
1210 1 775 773 776
1211 2 775 773 768
1212 2 776 773 768
1213 2 762 761 763
1214 2 762 761 764
1215 3 762 761 756
1216 1 763 761 764
1217 2 763 761 756
1218 2 764 761 756
1219 2 132 131 133
1220 2 132 131 134
1221 3 132 131 126
1222 1 133 131 134
1223 2 133 131 126
1224 2 134 131 126
1225 2 131 132 135
1226 2 131 132 136
1227 3 131 132 137
1228 1 135 132 136
1229 2 135 132 137
1230 2 136 132 137
1231 2 138 137 139
1232 2 138 137 140
1233 3 138 137 132
1234 1 139 137 140
1235 2 139 137 132
1236 2 140 137 132
1237 2 137 138 141
1238 2 137 138 142
1239 3 137 138 143
1240 1 141 138 142
1241 2 141 138 143
1242 2 142 138 143
1243 2 144 143 145
1244 2 144 143 146
1245 3 144 143 138
1246 1 145 143 146
1247 2 145 143 138
1248 2 146 143 138
1249 2 143 144 147
1250 2 143 144 148
1251 3 143 144 149
1252 1 147 144 148
1253 2 147 144 149
1254 2 148 144 149
1255 2 478 477 479
1256 2 478 477 480
1257 3 478 477 472
1258 1 479 477 480
1259 2 479 477 472
1260 2 480 477 472
1261 2 550 549 551
1262 2 550 549 552
1263 3 550 549 544
1264 1 551 549 552
1265 2 551 549 544
1266 2 552 549 544
1267 2 543 544 547
1268 2 543 544 548
1269 3 543 544 549
1270 1 547 544 548
1271 2 547 544 549
1272 2 548 544 549
1273 2 150 149 151
1274 2 150 149 152
1275 3 150 149 144
1276 1 151 149 152
1277 2 151 149 144
1278 2 152 149 144
1279 2 549 550 553
1280 2 549 550 554
1281 3 549 550 555
1282 1 553 550 554
1283 2 553 550 555
1284 2 554 550 555
1285 2 149 150 153
1286 2 149 150 154
1287 3 149 150 155
1288 1 153 150 154
1289 2 153 150 155
1290 2 154 150 155
1291 1 402 401 403
1292 1 402 401 404
1293 2 402 401 405
1294 1 403 401 404
1295 2 403 401 405
1296 2 404 401 405
1297 2 156 155 157
1298 2 156 155 158
1299 3 156 155 150
1300 1 157 155 158
1301 2 157 155 150
1302 2 158 155 150
1303 2 5 6 9
1304 2 5 6 10
1305 3 5 6 11
1306 1 9 6 10
1307 2 9 6 11
1308 2 10 6 11
1309 1 198 197 199
1310 1 198 197 200
1311 2 198 197 192
1312 1 199 197 200
1313 2 199 197 192
1314 2 200 197 192
1315 2 125 126 129
1316 2 125 126 130
1317 3 125 126 131
1318 1 129 126 130
1319 2 129 126 131
1320 2 130 126 131
1321 2 556 555 557
1322 2 556 555 558
1323 3 556 555 550
1324 1 557 555 558
1325 2 557 555 550
1326 2 558 555 550
1327 1 602 601 603
1328 1 602 601 604
1329 2 602 601 605
1330 1 603 601 604
1331 2 603 601 605
1332 2 604 601 605
1333 2 477 478 481
1334 2 477 478 482
1335 3 477 478 483
1336 1 481 478 482
1337 2 481 478 483
1338 2 482 478 483
1339 1 2 1 3
1340 1 2 1 4
1341 2 2 1 5
1342 1 3 1 4
1343 2 3 1 5
1344 2 4 1 5
1345 2 6 5 7
1346 2 6 5 8
1347 3 6 5 1
1348 1 7 5 8
1349 2 7 5 1
1350 2 8 5 1
1351 2 471 472 475
1352 2 471 472 476
1353 3 471 472 477
1354 1 475 472 476
1355 2 475 472 477
1356 2 476 472 477
1357 2 606 605 607
1358 2 606 605 608
1359 3 606 605 601
1360 1 607 605 608
1361 2 607 605 601
1362 2 608 605 601
1363 2 191 192 195
1364 2 191 192 196
1365 3 191 192 197
1366 1 195 192 196
1367 2 195 192 197
1368 2 196 192 197
1369 2 155 156 159
1370 2 155 156 160
1371 3 155 156 161
1372 1 159 156 160
1373 2 159 156 161
1374 2 160 156 161
1375 2 12 11 13
1376 2 12 11 14
1377 3 12 11 6
1378 1 13 11 14
1379 2 13 11 6
1380 2 14 11 6
1381 2 648 647 649
1382 2 648 647 650
1383 3 648 647 642
1384 1 649 647 650
1385 2 649 647 642
1386 2 650 647 642
1387 2 406 405 407
1388 2 406 405 408
1389 3 406 405 401
1390 1 407 405 408
1391 2 407 405 401
1392 2 408 405 401
1393 2 418 417 419
1394 2 418 417 420
1395 3 418 417 412
1396 1 419 417 420
1397 2 419 417 412
1398 2 420 417 412
1399 2 307 308 311
1400 2 307 308 312
1401 3 307 308 313
1402 1 311 308 312
1403 2 311 308 313
1404 2 312 308 313
1405 2 555 556 559
1406 2 555 556 560
1407 3 555 556 561
1408 1 559 556 560
1409 2 559 556 561
1410 2 560 556 561
1411 2 561 562 565
1412 2 561 562 566
1413 3 561 562 567
1414 1 565 562 566
1415 2 565 562 567
1416 2 566 562 567
1417 2 567 568 571
1418 2 567 568 572
1419 3 567 568 573
1420 1 571 568 572
1421 2 571 568 573
1422 2 572 568 573
1423 2 489 490 493
1424 2 489 490 494
1425 3 489 490 495
1426 1 493 490 494
1427 2 493 490 495
1428 2 494 490 495
1429 2 423 424 427
1430 2 423 424 428
1431 3 423 424 429
1432 1 427 424 428
1433 2 427 424 429
1434 2 428 424 429
1435 2 119 120 123
1436 2 119 120 124
1437 3 119 120 125
1438 1 123 120 124
1439 2 123 120 125
1440 2 124 120 125
1441 2 126 125 127
1442 2 126 125 128
1443 3 126 125 120
1444 1 127 125 128
1445 2 127 125 120
1446 2 128 125 120
1447 2 496 495 497
1448 2 496 495 498
1449 3 496 495 490
1450 1 497 495 498
1451 2 497 495 490
1452 2 498 495 490
1453 2 411 412 415
1454 2 411 412 416
1455 3 411 412 417
1456 1 415 412 416
1457 2 415 412 417
1458 2 416 412 417
1459 2 495 496 499
1460 2 495 496 500
1461 3 495 496 501
1462 1 499 496 500
1463 2 499 496 501
1464 2 500 496 501
1465 2 484 483 485
1466 2 484 483 486
1467 3 484 483 478
1468 1 485 483 486
1469 2 485 483 478
1470 2 486 483 478
1471 2 424 423 425
1472 2 424 423 426
1473 3 424 423 418
1474 1 425 423 426
1475 2 425 423 418
1476 2 426 423 418
1477 2 502 501 503
1478 2 502 501 504
1479 3 502 501 496
1480 1 503 501 504
1481 2 503 501 496
1482 2 504 501 496
1483 2 326 325 327
1484 2 326 325 328
1485 3 326 325 320
1486 1 327 325 328
1487 2 327 325 320
1488 2 328 325 320
1489 2 574 573 575
1490 2 574 573 576
1491 3 574 573 568
1492 1 575 573 576
1493 2 575 573 568
1494 2 576 573 568
1495 2 483 484 487
1496 2 483 484 488
1497 3 483 484 489
1498 1 487 484 488
1499 2 487 484 489
1500 2 488 484 489
1501 2 430 429 431
1502 2 430 429 432
1503 3 430 429 424
1504 1 431 429 432
1505 2 431 429 424
1506 2 432 429 424
1507 2 562 561 563
1508 2 562 561 564
1509 3 562 561 556
1510 1 563 561 564
1511 2 563 561 556
1512 2 564 561 556
1513 2 320 319 321
1514 2 320 319 322
1515 3 320 319 314
1516 1 321 319 322
1517 2 321 319 314
1518 2 322 319 314
1519 2 314 313 315
1520 2 314 313 316
1521 3 314 313 308
1522 1 315 313 316
1523 2 315 313 308
1524 2 316 313 308
1525 2 313 314 317
1526 2 313 314 318
1527 3 313 314 319
1528 1 317 314 318
1529 2 317 314 319
1530 2 318 314 319
1531 2 355 356 359
1532 2 355 356 360
1533 3 355 356 361
1534 1 359 356 360
1535 2 359 356 361
1536 2 360 356 361
1537 2 573 574 577
1538 2 573 574 578
1539 3 573 574 579
1540 1 577 574 578
1541 2 577 574 579
1542 2 578 574 579
1543 2 429 430 433
1544 2 429 430 434
1545 3 429 430 435
1546 1 433 430 434
1547 2 433 430 435
1548 2 434 430 435
1549 2 417 418 421
1550 2 417 418 422
1551 3 417 418 423
1552 1 421 418 422
1553 2 421 418 423
1554 2 422 418 423
1555 2 319 320 323
1556 2 319 320 324
1557 3 319 320 325
1558 1 323 320 324
1559 2 323 320 325
1560 2 324 320 325
1561 2 568 567 569
1562 2 568 567 570
1563 3 568 567 562
1564 1 569 567 570
1565 2 569 567 562
1566 2 570 567 562
1567 2 490 489 491
1568 2 490 489 492
1569 3 490 489 484
1570 1 491 489 492
1571 2 491 489 484
1572 2 492 489 484
1573 2 405 406 409
1574 2 405 406 410
1575 3 405 406 411
1576 1 409 406 410
1577 2 409 406 411
1578 2 410 406 411
1579 2 412 411 413
1580 2 412 411 414
1581 3 412 411 406
1582 1 413 411 414
1583 2 413 411 406
1584 2 414 411 406

Dihedrals

1 1 55 53 54 57
2 1 55 53 54 58
3 2 55 53 54 59
4 1 56 53 54 57
5 1 56 53 54 58
6 2 56 53 54 59
7 2 48 53 54 57
8 2 48 53 54 58
9 3 48 53 54 59
10 3 53 54 59 60
11 2 53 54 59 61
12 2 53 54 59 62
13 2 57 54 59 60
14 1 57 54 59 61
15 1 57 54 59 62
16 2 58 54 59 60
17 1 58 54 59 61
18 1 58 54 59 62
19 1 61 59 60 63
20 1 61 59 60 64
21 2 61 59 60 65
22 1 62 59 60 63
23 1 62 59 60 64
24 2 62 59 60 65
25 2 54 59 60 63
26 2 54 59 60 64
27 3 54 59 60 65
28 1 449 447 448 451
29 1 449 447 448 452
30 2 449 447 448 453
31 1 450 447 448 451
32 1 450 447 448 452
33 2 450 447 448 453
34 2 442 447 448 451
35 2 442 447 448 452
36 3 442 447 448 453
37 3 59 60 65 66
38 2 59 60 65 67
39 2 59 60 65 68
40 2 63 60 65 66
41 1 63 60 65 67
42 1 63 60 65 68
43 2 64 60 65 66
44 1 64 60 65 67
45 1 64 60 65 68
46 1 67 65 66 69
47 1 67 65 66 70
48 2 67 65 66 71
49 1 68 65 66 69
50 1 68 65 66 70
51 2 68 65 66 71
52 2 60 65 66 69
53 2 60 65 66 70
54 3 60 65 66 71
55 3 65 66 71 72
56 2 65 66 71 73
57 2 65 66 71 74
58 2 69 66 71 72
59 1 69 66 71 73
60 1 69 66 71 74
61 2 70 66 71 72
62 1 70 66 71 73
63 1 70 66 71 74
64 1 73 71 72 75
65 1 73 71 72 76
66 2 73 71 72 77
67 1 74 71 72 75
68 1 74 71 72 76
69 2 74 71 72 77
70 2 66 71 72 75
71 2 66 71 72 76
72 3 66 71 72 77
73 1 175 173 174 177
74 1 175 173 174 178
75 2 175 173 174 179
76 1 176 173 174 177
77 1 176 173 174 178
78 2 176 173 174 179
79 2 168 173 174 177
80 2 168 173 174 178
81 3 168 173 174 179
82 3 447 448 453 454
83 2 447 448 453 455
84 2 447 448 453 456
85 2 451 448 453 454
86 1 451 448 453 455
87 1 451 448 453 456
88 2 452 448 453 454
89 1 452 448 453 455
90 1 452 448 453 456
91 3 173 174 179 180
92 2 173 174 179 181
93 2 173 174 179 182
94 2 177 174 179 180
95 1 177 174 179 181
96 1 177 174 179 182
97 2 178 174 179 180
98 1 178 174 179 181
99 1 178 174 179 182
100 1 685 683 684 687
101 1 685 683 684 688
102 2 685 683 684 689
103 1 686 683 684 687
104 1 686 683 684 688
105 2 686 683 684 689
106 2 678 683 684 687
107 2 678 683 684 688
108 3 678 683 684 689
109 3 677 678 683 684
110 2 677 678 683 685
111 2 677 678 683 686
112 2 681 678 683 684
113 1 681 678 683 685
114 1 681 678 683 686
115 2 682 678 683 684
116 1 682 678 683 685
117 1 682 678 683 686
118 3 271 272 277 278
119 2 271 272 277 279
120 2 271 272 277 280
121 2 275 272 277 278
122 1 275 272 277 279
123 1 275 272 277 280
124 2 276 272 277 278
125 1 276 272 277 279
126 1 276 272 277 280
127 1 527 525 526 529
128 1 527 525 526 530
129 2 527 525 526 531
130 1 528 525 526 529
131 1 528 525 526 530
132 2 528 525 526 531
133 2 520 525 526 529
134 2 520 525 526 530
135 3 520 525 526 531
136 3 223 224 229 230
137 2 223 224 229 231
138 2 223 224 229 232
139 2 227 224 229 230
140 1 227 224 229 231
141 1 227 224 229 232
142 2 228 224 229 230
143 1 228 224 229 231
144 1 228 224 229 232
145 3 71 72 77 78
146 2 71 72 77 79
147 2 71 72 77 80
148 2 75 72 77 78
149 1 75 72 77 79
150 1 75 72 77 80
151 2 76 72 77 78
152 1 76 72 77 79
153 1 76 72 77 80
154 1 273 271 272 275
155 1 273 271 272 276
156 2 273 271 272 277
157 1 274 271 272 275
158 1 274 271 272 276
159 2 274 271 272 277
160 2 266 271 272 275
161 2 266 271 272 276
162 3 266 271 272 277
163 3 441 442 447 448
164 2 441 442 447 449
165 2 441 442 447 450
166 2 445 442 447 448
167 1 445 442 447 449
168 1 445 442 447 450
169 2 446 442 447 448
170 1 446 442 447 449
171 1 446 442 447 450
172 1 237 235 236 239
173 1 237 235 236 240
174 2 237 235 236 241
175 1 238 235 236 239
176 1 238 235 236 240
177 2 238 235 236 241
178 2 230 235 236 239
179 2 230 235 236 240
180 3 230 235 236 241
181 1 231 229 230 233
182 1 231 229 230 234
183 2 231 229 230 235
184 1 232 229 230 233
185 1 232 229 230 234
186 2 232 229 230 235
187 2 224 229 230 233
188 2 224 229 230 234
189 3 224 229 230 235
190 3 167 168 173 174
191 2 167 168 173 175
192 2 167 168 173 176
193 2 171 168 173 174
194 1 171 168 173 175
195 1 171 168 173 176
196 2 172 168 173 174
197 1 172 168 173 175
198 1 172 168 173 176
199 1 79 77 78 81
200 1 79 77 78 82
201 2 79 77 78 83
202 1 80 77 78 81
203 1 80 77 78 82
204 2 80 77 78 83
205 2 72 77 78 81
206 2 72 77 78 82
207 3 72 77 78 83
208 3 47 48 53 54
209 2 47 48 53 55
210 2 47 48 53 56
211 2 51 48 53 54
212 1 51 48 53 55
213 1 51 48 53 56
214 2 52 48 53 54
215 1 52 48 53 55
216 1 52 48 53 56
217 1 521 519 520 523
218 1 521 519 520 524
219 2 521 519 520 525
220 1 522 519 520 523
221 1 522 519 520 524
222 2 522 519 520 525
223 2 514 519 520 523
224 2 514 519 520 524
225 3 514 519 520 525
226 3 229 230 235 236
227 2 229 230 235 237
228 2 229 230 235 238
229 2 233 230 235 236
230 1 233 230 235 237
231 1 233 230 235 238
232 2 234 230 235 236
233 1 234 230 235 237
234 1 234 230 235 238
235 1 679 677 678 681
236 1 679 677 678 682
237 2 679 677 678 683
238 1 680 677 678 681
239 1 680 677 678 682
240 2 680 677 678 683
241 2 672 677 678 681
242 2 672 677 678 682
243 3 672 677 678 683
244 3 683 684 689 690
245 2 683 684 689 691
246 2 683 684 689 692
247 2 687 684 689 690
248 1 687 684 689 691
249 1 687 684 689 692
250 2 688 684 689 690
251 1 688 684 689 691
252 1 688 684 689 692
253 1 455 453 454 457
254 1 455 453 454 458
255 2 455 453 454 459
256 1 456 453 454 457
257 1 456 453 454 458
258 2 456 453 454 459
259 2 448 453 454 457
260 2 448 453 454 458
261 3 448 453 454 459
262 1 49 47 48 51
263 1 49 47 48 52
264 2 49 47 48 53
265 1 50 47 48 51
266 1 50 47 48 52
267 2 50 47 48 53
268 2 42 47 48 51
269 2 42 47 48 52
270 3 42 47 48 53
271 1 225 223 224 227
272 1 225 223 224 228
273 2 225 223 224 229
274 1 226 223 224 227
275 1 226 223 224 228
276 2 226 223 224 229
277 2 218 223 224 227
278 2 218 223 224 228
279 3 218 223 224 229
280 1 181 179 180 183
281 1 181 179 180 184
282 2 181 179 180 185
283 1 182 179 180 183
284 1 182 179 180 184
285 2 182 179 180 185
286 2 174 179 180 183
287 2 174 179 180 184
288 3 174 179 180 185
289 1 443 441 442 445
290 1 443 441 442 446
291 2 443 441 442 447
292 1 444 441 442 445
293 1 444 441 442 446
294 2 444 441 442 447
295 2 436 441 442 445
296 2 436 441 442 446
297 3 436 441 442 447
298 3 235 236 241 242
299 2 235 236 241 243
300 2 235 236 241 244
301 2 239 236 241 242
302 1 239 236 241 243
303 1 239 236 241 244
304 2 240 236 241 242
305 1 240 236 241 243
306 1 240 236 241 244
307 3 77 78 83 84
308 2 77 78 83 85
309 2 77 78 83 86
310 2 81 78 83 84
311 1 81 78 83 85
312 1 81 78 83 86
313 2 82 78 83 84
314 1 82 78 83 85
315 1 82 78 83 86
316 3 519 520 525 526
317 2 519 520 525 527
318 2 519 520 525 528
319 2 523 520 525 526
320 1 523 520 525 527
321 1 523 520 525 528
322 2 524 520 525 526
323 1 524 520 525 527
324 1 524 520 525 528
325 3 95 96 101 102
326 2 95 96 101 103
327 2 95 96 101 104
328 2 99 96 101 102
329 1 99 96 101 103
330 1 99 96 101 104
331 2 100 96 101 102
332 1 100 96 101 103
333 1 100 96 101 104
334 3 259 260 265 266
335 2 259 260 265 267
336 2 259 260 265 268
337 2 263 260 265 266
338 1 263 260 265 267
339 1 263 260 265 268
340 2 264 260 265 266
341 1 264 260 265 267
342 1 264 260 265 268
343 1 279 277 278 281
344 1 279 277 278 282
345 2 279 277 278 283
346 1 280 277 278 281
347 1 280 277 278 282
348 2 280 277 278 283
349 2 272 277 278 281
350 2 272 277 278 282
351 3 272 277 278 283
352 1 255 253 254 257
353 1 255 253 254 258
354 2 255 253 254 259
355 1 256 253 254 257
356 1 256 253 254 258
357 2 256 253 254 259
358 2 248 253 254 257
359 2 248 253 254 258
360 3 248 253 254 259
361 3 513 514 519 520
362 2 513 514 519 521
363 2 513 514 519 522
364 2 517 514 519 520
365 1 517 514 519 521
366 1 517 514 519 522
367 2 518 514 519 520
368 1 518 514 519 521
369 1 518 514 519 522
370 3 749 750 755 756
371 2 749 750 755 757
372 2 749 750 755 758
373 2 753 750 755 756
374 1 753 750 755 757
375 1 753 750 755 758
376 2 754 750 755 756
377 1 754 750 755 757
378 1 754 750 755 758
379 3 277 278 283 284
380 2 277 278 283 285
381 2 277 278 283 286
382 2 281 278 283 284
383 1 281 278 283 285
384 1 281 278 283 286
385 2 282 278 283 284
386 1 282 278 283 285
387 1 282 278 283 286
388 1 509 507 508 511
389 1 509 507 508 512
390 2 509 507 508 513
391 1 510 507 508 511
392 1 510 507 508 512
393 2 510 507 508 513
394 2 502 507 508 511
395 2 502 507 508 512
396 3 502 507 508 513
397 1 91 89 90 93
398 1 91 89 90 94
399 2 91 89 90 95
400 1 92 89 90 93
401 1 92 89 90 94
402 2 92 89 90 95
403 2 84 89 90 93
404 2 84 89 90 94
405 3 84 89 90 95
406 3 83 84 89 90
407 2 83 84 89 91
408 2 83 84 89 92
409 2 87 84 89 90
410 1 87 84 89 91
411 1 87 84 89 92
412 2 88 84 89 90
413 1 88 84 89 91
414 1 88 84 89 92
415 3 743 744 749 750
416 2 743 744 749 751
417 2 743 744 749 752
418 2 747 744 749 750
419 1 747 744 749 751
420 1 747 744 749 752
421 2 748 744 749 750
422 1 748 744 749 751
423 1 748 744 749 752
424 1 751 749 750 753
425 1 751 749 750 754
426 2 751 749 750 755
427 1 752 749 750 753
428 1 752 749 750 754
429 2 752 749 750 755
430 2 744 749 750 753
431 2 744 749 750 754
432 3 744 749 750 755
433 1 249 247 248 251
434 1 249 247 248 252
435 2 249 247 248 253
436 1 250 247 248 251
437 1 250 247 248 252
438 2 250 247 248 253
439 2 242 247 248 251
440 2 242 247 248 252
441 3 242 247 248 253
442 3 265 266 271 272
443 2 265 266 271 273
444 2 265 266 271 274
445 2 269 266 271 272
446 1 269 266 271 273
447 1 269 266 271 274
448 2 270 266 271 272
449 1 270 266 271 273
450 1 270 266 271 274
451 3 501 502 507 508
452 2 501 502 507 509
453 2 501 502 507 510
454 2 505 502 507 508
455 1 505 502 507 509
456 1 505 502 507 510
457 2 506 502 507 508
458 1 506 502 507 509
459 1 506 502 507 510
460 3 89 90 95 96
461 2 89 90 95 97
462 2 89 90 95 98
463 2 93 90 95 96
464 1 93 90 95 97
465 1 93 90 95 98
466 2 94 90 95 96
467 1 94 90 95 97
468 1 94 90 95 98
469 3 755 756 761 762
470 2 755 756 761 763
471 2 755 756 761 764
472 2 759 756 761 762
473 1 759 756 761 763
474 1 759 756 761 764
475 2 760 756 761 762
476 1 760 756 761 763
477 1 760 756 761 764
478 3 507 508 513 514
479 2 507 508 513 515
480 2 507 508 513 516
481 2 511 508 513 514
482 1 511 508 513 515
483 1 511 508 513 516
484 2 512 508 513 514
485 1 512 508 513 515
486 1 512 508 513 516
487 1 261 259 260 263
488 1 261 259 260 264
489 2 261 259 260 265
490 1 262 259 260 263
491 1 262 259 260 264
492 2 262 259 260 265
493 2 254 259 260 263
494 2 254 259 260 264
495 3 254 259 260 265
496 3 253 254 259 260
497 2 253 254 259 261
498 2 253 254 259 262
499 2 257 254 259 260
500 1 257 254 259 261
501 1 257 254 259 262
502 2 258 254 259 260
503 1 258 254 259 261
504 1 258 254 259 262
505 1 515 513 514 517
506 1 515 513 514 518
507 2 515 513 514 519
508 1 516 513 514 517
509 1 516 513 514 518
510 2 516 513 514 519
511 2 508 513 514 517
512 2 508 513 514 518
513 3 508 513 514 519
514 1 739 737 738 741
515 1 739 737 738 742
516 2 739 737 738 743
517 1 740 737 738 741
518 1 740 737 738 742
519 2 740 737 738 743
520 2 732 737 738 741
521 2 732 737 738 742
522 3 732 737 738 743
523 1 103 101 102 105
524 1 103 101 102 106
525 2 103 101 102 107
526 1 104 101 102 105
527 1 104 101 102 106
528 2 104 101 102 107
529 2 96 101 102 105
530 2 96 101 102 106
531 3 96 101 102 107
532 1 291 289 290 293
533 1 291 289 290 294
534 2 291 289 290 295
535 1 292 289 290 293
536 1 292 289 290 294
537 2 292 289 290 295
538 2 284 289 290 293
539 2 284 289 290 294
540 3 284 289 290 295
541 3 737 738 743 744
542 2 737 738 743 745
543 2 737 738 743 746
544 2 741 738 743 744
545 1 741 738 743 745
546 1 741 738 743 746
547 2 742 738 743 744
548 1 742 738 743 745
549 1 742 738 743 746
550 1 285 283 284 287
551 1 285 283 284 288
552 2 285 283 284 289
553 1 286 283 284 287
554 1 286 283 284 288
555 2 286 283 284 289
556 2 278 283 284 287
557 2 278 283 284 288
558 3 278 283 284 289
559 3 283 284 289 290
560 2 283 284 289 291
561 2 283 284 289 292
562 2 287 284 289 290
563 1 287 284 289 291
564 1 287 284 289 292
565 2 288 284 289 290
566 1 288 284 289 291
567 1 288 284 289 292
568 1 745 743 744 747
569 1 745 743 744 748
570 2 745 743 744 749
571 1 746 743 744 747
572 1 746 743 744 748
573 2 746 743 744 749
574 2 738 743 744 747
575 2 738 743 744 748
576 3 738 743 744 749
577 1 757 755 756 759
578 1 757 755 756 760
579 2 757 755 756 761
580 1 758 755 756 759
581 1 758 755 756 760
582 2 758 755 756 761
583 2 750 755 756 759
584 2 750 755 756 760
585 3 750 755 756 761
586 3 289 290 295 296
587 2 289 290 295 297
588 2 289 290 295 298
589 2 293 290 295 296
590 1 293 290 295 297
591 1 293 290 295 298
592 2 294 290 295 296
593 1 294 290 295 297
594 1 294 290 295 298
595 1 243 241 242 245
596 1 243 241 242 246
597 2 243 241 242 247
598 1 244 241 242 245
599 1 244 241 242 246
600 2 244 241 242 247
601 2 236 241 242 245
602 2 236 241 242 246
603 3 236 241 242 247
604 1 85 83 84 87
605 1 85 83 84 88
606 2 85 83 84 89
607 1 86 83 84 87
608 1 86 83 84 88
609 2 86 83 84 89
610 2 78 83 84 87
611 2 78 83 84 88
612 3 78 83 84 89
613 1 97 95 96 99
614 1 97 95 96 100
615 2 97 95 96 101
616 1 98 95 96 99
617 1 98 95 96 100
618 2 98 95 96 101
619 2 90 95 96 99
620 2 90 95 96 100
621 3 90 95 96 101
622 1 297 295 296 299
623 1 297 295 296 300
624 2 297 295 296 301
625 1 298 295 296 299
626 1 298 295 296 300
627 2 298 295 296 301
628 2 290 295 296 299
629 2 290 295 296 300
630 3 290 295 296 301
631 3 659 660 665 666
632 2 659 660 665 667
633 2 659 660 665 668
634 2 663 660 665 666
635 1 663 660 665 667
636 1 663 660 665 668
637 2 664 660 665 666
638 1 664 660 665 667
639 1 664 660 665 668
640 1 661 659 660 663
641 1 661 659 660 664
642 2 661 659 660 665
643 1 662 659 660 663
644 1 662 659 660 664
645 2 662 659 660 665
646 2 654 659 660 663
647 2 654 659 660 664
648 3 654 659 660 665
649 3 17 18 23 24
650 2 17 18 23 25
651 2 17 18 23 26
652 2 21 18 23 24
653 1 21 18 23 25
654 1 21 18 23 26
655 2 22 18 23 24
656 1 22 18 23 25
657 1 22 18 23 26
658 1 667 665 666 669
659 1 667 665 666 670
660 2 667 665 666 671
661 1 668 665 666 669
662 1 668 665 666 670
663 2 668 665 666 671
664 2 660 665 666 669
665 2 660 665 666 670
666 3 660 665 666 671
667 1 25 23 24 27
668 1 25 23 24 28
669 2 25 23 24 29
670 1 26 23 24 27
671 1 26 23 24 28
672 2 26 23 24 29
673 2 18 23 24 27
674 2 18 23 24 28
675 3 18 23 24 29
676 3 665 666 671 672
677 2 665 666 671 673
678 2 665 666 671 674
679 2 669 666 671 672
680 1 669 666 671 673
681 1 669 666 671 674
682 2 670 666 671 672
683 1 670 666 671 673
684 1 670 666 671 674
685 3 653 654 659 660
686 2 653 654 659 661
687 2 653 654 659 662
688 2 657 654 659 660
689 1 657 654 659 661
690 1 657 654 659 662
691 2 658 654 659 660
692 1 658 654 659 661
693 1 658 654 659 662
694 1 31 29 30 33
695 1 31 29 30 34
696 2 31 29 30 35
697 1 32 29 30 33
698 1 32 29 30 34
699 2 32 29 30 35
700 2 24 29 30 33
701 2 24 29 30 34
702 3 24 29 30 35
703 3 29 30 35 36
704 2 29 30 35 37
705 2 29 30 35 38
706 2 33 30 35 36
707 1 33 30 35 37
708 1 33 30 35 38
709 2 34 30 35 36
710 1 34 30 35 37
711 1 34 30 35 38
712 3 23 24 29 30
713 2 23 24 29 31
714 2 23 24 29 32
715 2 27 24 29 30
716 1 27 24 29 31
717 1 27 24 29 32
718 2 28 24 29 30
719 1 28 24 29 31
720 1 28 24 29 32
721 3 531 532 537 538
722 2 531 532 537 539
723 2 531 532 537 540
724 2 535 532 537 538
725 1 535 532 537 539
726 1 535 532 537 540
727 2 536 532 537 538
728 1 536 532 537 539
729 1 536 532 537 540
730 1 539 537 538 541
731 1 539 537 538 542
732 2 539 537 538 543
733 1 540 537 538 541
734 1 540 537 538 542
735 2 540 537 538 543
736 2 532 537 538 541
737 2 532 537 538 542
738 3 532 537 538 543
739 1 655 653 654 657
740 1 655 653 654 658
741 2 655 653 654 659
742 1 656 653 654 657
743 1 656 653 654 658
744 2 656 653 654 659
745 2 648 653 654 657
746 2 648 653 654 658
747 3 648 653 654 659
748 1 19 17 18 21
749 1 19 17 18 22
750 2 19 17 18 23
751 1 20 17 18 21
752 1 20 17 18 22
753 2 20 17 18 23
754 2 12 17 18 21
755 2 12 17 18 22
756 3 12 17 18 23
757 1 37 35 36 39
758 1 37 35 36 40
759 2 37 35 36 41
760 1 38 35 36 39
761 1 38 35 36 40
762 2 38 35 36 41
763 2 30 35 36 39
764 2 30 35 36 40
765 3 30 35 36 41
766 3 35 36 41 42
767 2 35 36 41 43
768 2 35 36 41 44
769 2 39 36 41 42
770 1 39 36 41 43
771 1 39 36 41 44
772 2 40 36 41 42
773 1 40 36 41 43
774 1 40 36 41 44
775 1 533 531 532 535
776 1 533 531 532 536
777 2 533 531 532 537
778 1 534 531 532 535
779 1 534 531 532 536
780 2 534 531 532 537
781 2 526 531 532 535
782 2 526 531 532 536
783 3 526 531 532 537
784 1 187 185 186 189
785 1 187 185 186 190
786 2 187 185 186 191
787 1 188 185 186 189
788 1 188 185 186 190
789 2 188 185 186 191
790 2 180 185 186 189
791 2 180 185 186 190
792 3 180 185 186 191
793 3 41 42 47 48
794 2 41 42 47 49
795 2 41 42 47 50
796 2 45 42 47 48
797 1 45 42 47 49
798 1 45 42 47 50
799 2 46 42 47 48
800 1 46 42 47 49
801 1 46 42 47 50
802 3 435 436 441 442
803 2 435 436 441 443
804 2 435 436 441 444
805 2 439 436 441 442
806 1 439 436 441 443
807 1 439 436 441 444
808 2 440 436 441 442
809 1 440 436 441 443
810 1 440 436 441 444
811 1 673 671 672 675
812 1 673 671 672 676
813 2 673 671 672 677
814 1 674 671 672 675
815 1 674 671 672 676
816 2 674 671 672 677
817 2 666 671 672 675
818 2 666 671 672 676
819 3 666 671 672 677
820 1 43 41 42 45
821 1 43 41 42 46
822 2 43 41 42 47
823 1 44 41 42 45
824 1 44 41 42 46
825 2 44 41 42 47
826 2 36 41 42 45
827 2 36 41 42 46
828 3 36 41 42 47
829 3 635 636 641 642
830 2 635 636 641 643
831 2 635 636 641 644
832 2 639 636 641 642
833 1 639 636 641 643
834 1 639 636 641 644
835 2 640 636 641 642
836 1 640 636 641 643
837 1 640 636 641 644
838 1 193 191 192 195
839 1 193 191 192 196
840 2 193 191 192 197
841 1 194 191 192 195
842 1 194 191 192 196
843 2 194 191 192 197
844 2 186 191 192 195
845 2 186 191 192 196
846 3 186 191 192 197
847 3 641 642 647 648
848 2 641 642 647 649
849 2 641 642 647 650
850 2 645 642 647 648
851 1 645 642 647 649
852 1 645 642 647 650
853 2 646 642 647 648
854 1 646 642 647 649
855 1 646 642 647 650
856 1 643 641 642 645
857 1 643 641 642 646
858 2 643 641 642 647
859 1 644 641 642 645
860 1 644 641 642 646
861 2 644 641 642 647
862 2 636 641 642 645
863 2 636 641 642 646
864 3 636 641 642 647
865 3 671 672 677 678
866 2 671 672 677 679
867 2 671 672 677 680
868 2 675 672 677 678
869 1 675 672 677 679
870 1 675 672 677 680
871 2 676 672 677 678
872 1 676 672 677 679
873 1 676 672 677 680
874 3 537 538 543 544
875 2 537 538 543 545
876 2 537 538 543 546
877 2 541 538 543 544
878 1 541 538 543 545
879 1 541 538 543 546
880 2 542 538 543 544
881 1 542 538 543 545
882 1 542 538 543 546
883 3 185 186 191 192
884 2 185 186 191 193
885 2 185 186 191 194
886 2 189 186 191 192
887 1 189 186 191 193
888 1 189 186 191 194
889 2 190 186 191 192
890 1 190 186 191 193
891 1 190 186 191 194
892 3 525 526 531 532
893 2 525 526 531 533
894 2 525 526 531 534
895 2 529 526 531 532
896 1 529 526 531 533
897 1 529 526 531 534
898 2 530 526 531 532
899 1 530 526 531 533
900 1 530 526 531 534
901 1 437 435 436 439
902 1 437 435 436 440
903 2 437 435 436 441
904 1 438 435 436 439
905 1 438 435 436 440
906 2 438 435 436 441
907 2 430 435 436 439
908 2 430 435 436 440
909 3 430 435 436 441
910 3 179 180 185 186
911 2 179 180 185 187
912 2 179 180 185 188
913 2 183 180 185 186
914 1 183 180 185 187
915 1 183 180 185 188
916 2 184 180 185 186
917 1 184 180 185 187
918 1 184 180 185 188
919 3 647 648 653 654
920 2 647 648 653 655
921 2 647 648 653 656
922 2 651 648 653 654
923 1 651 648 653 655
924 1 651 648 653 656
925 2 652 648 653 654
926 1 652 648 653 655
927 1 652 648 653 656
928 1 545 543 544 547
929 1 545 543 544 548
930 2 545 543 544 549
931 1 546 543 544 547
932 1 546 543 544 548
933 2 546 543 544 549
934 2 538 543 544 547
935 2 538 543 544 548
936 3 538 543 544 549
937 3 11 12 17 18
938 2 11 12 17 19
939 2 11 12 17 20
940 2 15 12 17 18
941 1 15 12 17 19
942 1 15 12 17 20
943 2 16 12 17 18
944 1 16 12 17 19
945 1 16 12 17 20
946 1 121 119 120 123
947 1 121 119 120 124
948 2 121 119 120 125
949 1 122 119 120 123
950 1 122 119 120 124
951 2 122 119 120 125
952 2 114 119 120 123
953 2 114 119 120 124
954 3 114 119 120 125
955 3 113 114 119 120
956 2 113 114 119 121
957 2 113 114 119 122
958 2 117 114 119 120
959 1 117 114 119 121
960 1 117 114 119 122
961 2 118 114 119 120
962 1 118 114 119 121
963 1 118 114 119 122
964 3 605 606 611 612
965 2 605 606 611 613
966 2 605 606 611 614
967 2 609 606 611 612
968 1 609 606 611 613
969 1 609 606 611 614
970 2 610 606 611 612
971 1 610 606 611 613
972 1 610 606 611 614
973 3 579 580 585 586
974 2 579 580 585 587
975 2 579 580 585 588
976 2 583 580 585 586
977 1 583 580 585 587
978 1 583 580 585 588
979 2 584 580 585 586
980 1 584 580 585 587
981 1 584 580 585 588
982 1 357 355 356 359
983 1 357 355 356 360
984 2 357 355 356 361
985 1 358 355 356 359
986 1 358 355 356 360
987 2 358 355 356 361
988 2 350 355 356 359
989 2 350 355 356 360
990 3 350 355 356 361
991 1 339 337 338 341
992 1 339 337 338 342
993 2 339 337 338 343
994 1 340 337 338 341
995 1 340 337 338 342
996 2 340 337 338 343
997 2 332 337 338 341
998 2 332 337 338 342
999 3 332 337 338 343
1000 3 107 108 113 114
1001 2 107 108 113 115
1002 2 107 108 113 116
1003 2 111 108 113 114
1004 1 111 108 113 115
1005 1 111 108 113 116
1006 2 112 108 113 114
1007 1 112 108 113 115
1008 1 112 108 113 116
1009 1 109 107 108 111
1010 1 109 107 108 112
1011 2 109 107 108 113
1012 1 110 107 108 111
1013 1 110 107 108 112
1014 2 110 107 108 113
1015 2 102 107 108 111
1016 2 102 107 108 112
1017 3 102 107 108 113
1018 1 351 349 350 353
1019 1 351 349 350 354
1020 2 351 349 350 355
1021 1 352 349 350 353
1022 1 352 349 350 354
1023 2 352 349 350 355
1024 2 344 349 350 353
1025 2 344 349 350 354
1026 3 344 349 350 355
1027 1 115 113 114 117
1028 1 115 113 114 118
1029 2 115 113 114 119
1030 1 116 113 114 117
1031 1 116 113 114 118
1032 2 116 113 114 119
1033 2 108 113 114 117
1034 2 108 113 114 118
1035 3 108 113 114 119
1036 3 617 618 623 624
1037 2 617 618 623 625
1038 2 617 618 623 626
1039 2 621 618 623 624
1040 1 621 618 623 625
1041 1 621 618 623 626
1042 2 622 618 623 624
1043 1 622 618 623 625
1044 1 622 618 623 626
1045 1 581 579 580 583
1046 1 581 579 580 584
1047 2 581 579 580 585
1048 1 582 579 580 583
1049 1 582 579 580 584
1050 2 582 579 580 585
1051 2 574 579 580 583
1052 2 574 579 580 584
1053 3 574 579 580 585
1054 3 101 102 107 108
1055 2 101 102 107 109
1056 2 101 102 107 110
1057 2 105 102 107 108
1058 1 105 102 107 109
1059 1 105 102 107 110
1060 2 106 102 107 108
1061 1 106 102 107 109
1062 1 106 102 107 110
1063 1 619 617 618 621
1064 1 619 617 618 622
1065 2 619 617 618 623
1066 1 620 617 618 621
1067 1 620 617 618 622
1068 2 620 617 618 623
1069 2 612 617 618 621
1070 2 612 617 618 622
1071 3 612 617 618 623
1072 1 625 623 624 627
1073 1 625 623 624 628
1074 2 625 623 624 629
1075 1 626 623 624 627
1076 1 626 623 624 628
1077 2 626 623 624 629
1078 2 618 623 624 627
1079 2 618 623 624 628
1080 3 618 623 624 629
1081 3 337 338 343 344
1082 2 337 338 343 345
1083 2 337 338 343 346
1084 2 341 338 343 344
1085 1 341 338 343 345
1086 1 341 338 343 346
1087 2 342 338 343 344
1088 1 342 338 343 345
1089 1 342 338 343 346
1090 1 631 629 630 633
1091 1 631 629 630 634
1092 2 631 629 630 635
1093 1 632 629 630 633
1094 1 632 629 630 634
1095 2 632 629 630 635
1096 2 624 629 630 633
1097 2 624 629 630 634
1098 3 624 629 630 635
1099 3 325 326 331 332
1100 2 325 326 331 333
1101 2 325 326 331 334
1102 2 329 326 331 332
1103 1 329 326 331 333
1104 1 329 326 331 334
1105 2 330 326 331 332
1106 1 330 326 331 333
1107 1 330 326 331 334
1108 3 247 248 253 254
1109 2 247 248 253 255
1110 2 247 248 253 256
1111 2 251 248 253 254
1112 1 251 248 253 255
1113 1 251 248 253 256
1114 2 252 248 253 254
1115 1 252 248 253 255
1116 1 252 248 253 256
1117 1 345 343 344 347
1118 1 345 343 344 348
1119 2 345 343 344 349
1120 1 346 343 344 347
1121 1 346 343 344 348
1122 2 346 343 344 349
1123 2 338 343 344 347
1124 2 338 343 344 348
1125 3 338 343 344 349
1126 1 587 585 586 589
1127 1 587 585 586 590
1128 2 587 585 586 591
1129 1 588 585 586 589
1130 1 588 585 586 590
1131 2 588 585 586 591
1132 2 580 585 586 589
1133 2 580 585 586 590
1134 3 580 585 586 591
1135 3 349 350 355 356
1136 2 349 350 355 357
1137 2 349 350 355 358
1138 2 353 350 355 356
1139 1 353 350 355 357
1140 1 353 350 355 358
1141 2 354 350 355 356
1142 1 354 350 355 357
1143 1 354 350 355 358
1144 1 593 591 592 595
1145 1 593 591 592 596
1146 2 593 591 592 597
1147 1 594 591 592 595
1148 1 594 591 592 596
1149 2 594 591 592 597
1150 2 586 591 592 595
1151 2 586 591 592 596
1152 3 586 591 592 597
1153 3 331 332 337 338
1154 2 331 332 337 339
1155 2 331 332 337 340
1156 2 335 332 337 338
1157 1 335 332 337 339
1158 1 335 332 337 340
1159 2 336 332 337 338
1160 1 336 332 337 339
1161 1 336 332 337 340
1162 1 613 611 612 615
1163 1 613 611 612 616
1164 2 613 611 612 617
1165 1 614 611 612 615
1166 1 614 611 612 616
1167 2 614 611 612 617
1168 2 606 611 612 615
1169 2 606 611 612 616
1170 3 606 611 612 617
1171 1 333 331 332 335
1172 1 333 331 332 336
1173 2 333 331 332 337
1174 1 334 331 332 335
1175 1 334 331 332 336
1176 2 334 331 332 337
1177 2 326 331 332 335
1178 2 326 331 332 336
1179 3 326 331 332 337
1180 1 637 635 636 639
1181 1 637 635 636 640
1182 2 637 635 636 641
1183 1 638 635 636 639
1184 1 638 635 636 640
1185 2 638 635 636 641
1186 2 630 635 636 639
1187 2 630 635 636 640
1188 3 630 635 636 641
1189 3 623 624 629 630
1190 2 623 624 629 631
1191 2 623 624 629 632
1192 2 627 624 629 630
1193 1 627 624 629 631
1194 1 627 624 629 632
1195 2 628 624 629 630
1196 1 628 624 629 631
1197 1 628 624 629 632
1198 3 585 586 591 592
1199 2 585 586 591 593
1200 2 585 586 591 594
1201 2 589 586 591 592
1202 1 589 586 591 593
1203 1 589 586 591 594
1204 2 590 586 591 592
1205 1 590 586 591 593
1206 1 590 586 591 594
1207 3 629 630 635 636
1208 2 629 630 635 637
1209 2 629 630 635 638
1210 2 633 630 635 636
1211 1 633 630 635 637
1212 1 633 630 635 638
1213 2 634 630 635 636
1214 1 634 630 635 637
1215 1 634 630 635 638
1216 2 591 592 597 598
1217 2 591 592 597 599
1218 2 591 592 597 600
1219 1 595 592 597 598
1220 1 595 592 597 599
1221 1 595 592 597 600
1222 1 596 592 597 598
1223 1 596 592 597 599
1224 1 596 592 597 600
1225 3 611 612 617 618
1226 2 611 612 617 619
1227 2 611 612 617 620
1228 2 615 612 617 618
1229 1 615 612 617 619
1230 1 615 612 617 620
1231 2 616 612 617 618
1232 1 616 612 617 619
1233 1 616 612 617 620
1234 3 343 344 349 350
1235 2 343 344 349 351
1236 2 343 344 349 352
1237 2 347 344 349 350
1238 1 347 344 349 351
1239 1 347 344 349 352
1240 2 348 344 349 350
1241 1 348 344 349 351
1242 1 348 344 349 352
1243 3 241 242 247 248
1244 2 241 242 247 249
1245 2 241 242 247 250
1246 2 245 242 247 248
1247 1 245 242 247 249
1248 1 245 242 247 250
1249 2 246 242 247 248
1250 1 246 242 247 249
1251 1 246 242 247 250
1252 1 213 211 212 215
1253 1 213 211 212 216
1254 2 213 211 212 217
1255 1 214 211 212 215
1256 1 214 211 212 216
1257 2 214 211 212 217
1258 2 206 211 212 215
1259 2 206 211 212 216
1260 3 206 211 212 217
1261 3 211 212 217 218
1262 2 211 212 217 219
1263 2 211 212 217 220
1264 2 215 212 217 218
1265 1 215 212 217 219
1266 1 215 212 217 220
1267 2 216 212 217 218
1268 1 216 212 217 219
1269 1 216 212 217 220
1270 1 467 465 466 469
1271 1 467 465 466 470
1272 2 467 465 466 471
1273 1 468 465 466 469
1274 1 468 465 466 470
1275 2 468 465 466 471
1276 2 460 465 466 469
1277 2 460 465 466 470
1278 3 460 465 466 471
1279 3 205 206 211 212
1280 2 205 206 211 213
1281 2 205 206 211 214
1282 2 209 206 211 212
1283 1 209 206 211 213
1284 1 209 206 211 214
1285 2 210 206 211 212
1286 1 210 206 211 213
1287 1 210 206 211 214
1288 1 207 205 206 209
1289 1 207 205 206 210
1290 2 207 205 206 211
1291 1 208 205 206 209
1292 1 208 205 206 210
1293 2 208 205 206 211
1294 2 201 205 206 209
1295 2 201 205 206 210
1296 3 201 205 206 211
1297 2 202 201 205 206
1298 1 202 201 205 207
1299 1 202 201 205 208
1300 2 203 201 205 206
1301 1 203 201 205 207
1302 1 203 201 205 208
1303 2 204 201 205 206
1304 1 204 201 205 207
1305 1 204 201 205 208
1306 3 385 386 391 392
1307 2 385 386 391 393
1308 2 385 386 391 394
1309 2 389 386 391 392
1310 1 389 386 391 393
1311 1 389 386 391 394
1312 2 390 386 391 392
1313 1 390 386 391 393
1314 1 390 386 391 394
1315 3 779 780 785 786
1316 2 779 780 785 787
1317 2 779 780 785 788
1318 2 783 780 785 786
1319 1 783 780 785 787
1320 1 783 780 785 788
1321 2 784 780 785 786
1322 1 784 780 785 787
1323 1 784 780 785 788
1324 1 787 785 786 789
1325 1 787 785 786 790
1326 2 787 785 786 791
1327 1 788 785 786 789
1328 1 788 785 786 790
1329 2 788 785 786 791
1330 2 780 785 786 789
1331 2 780 785 786 790
1332 3 780 785 786 791
1333 3 459 460 465 466
1334 2 459 460 465 467
1335 2 459 460 465 468
1336 2 463 460 465 466
1337 1 463 460 465 467
1338 1 463 460 465 468
1339 2 464 460 465 466
1340 1 464 460 465 467
1341 1 464 460 465 468
1342 1 393 391 392 395
1343 1 393 391 392 396
1344 2 393 391 392 397
1345 1 394 391 392 395
1346 1 394 391 392 396
1347 2 394 391 392 397
1348 2 386 391 392 395
1349 2 386 391 392 396
1350 3 386 391 392 397
1351 1 781 779 780 783
1352 1 781 779 780 784
1353 2 781 779 780 785
1354 1 782 779 780 783
1355 1 782 779 780 784
1356 2 782 779 780 785
1357 2 774 779 780 783
1358 2 774 779 780 784
1359 3 774 779 780 785
1360 1 387 385 386 389
1361 1 387 385 386 390
1362 2 387 385 386 391
1363 1 388 385 386 389
1364 1 388 385 386 390
1365 2 388 385 386 391
1366 2 380 385 386 389
1367 2 380 385 386 390
1368 3 380 385 386 391
1369 1 793 791 792 795
1370 1 793 791 792 796
1371 2 793 791 792 797
1372 1 794 791 792 795
1373 1 794 791 792 796
1374 2 794 791 792 797
1375 2 786 791 792 795
1376 2 786 791 792 796
1377 3 786 791 792 797
1378 3 465 466 471 472
1379 2 465 466 471 473
1380 2 465 466 471 474
1381 2 469 466 471 472
1382 1 469 466 471 473
1383 1 469 466 471 474
1384 2 470 466 471 472
1385 1 470 466 471 473
1386 1 470 466 471 474
1387 2 391 392 397 398
1388 2 391 392 397 399
1389 2 391 392 397 400
1390 1 395 392 397 398
1391 1 395 392 397 399
1392 1 395 392 397 400
1393 1 396 392 397 398
1394 1 396 392 397 399
1395 1 396 392 397 400
1396 3 785 786 791 792
1397 2 785 786 791 793
1398 2 785 786 791 794
1399 2 789 786 791 792
1400 1 789 786 791 793
1401 1 789 786 791 794
1402 2 790 786 791 792
1403 1 790 786 791 793
1404 1 790 786 791 794
1405 1 219 217 218 221
1406 1 219 217 218 222
1407 2 219 217 218 223
1408 1 220 217 218 221
1409 1 220 217 218 222
1410 2 220 217 218 223
1411 2 212 217 218 221
1412 2 212 217 218 222
1413 3 212 217 218 223
1414 3 217 218 223 224
1415 2 217 218 223 225
1416 2 217 218 223 226
1417 2 221 218 223 224
1418 1 221 218 223 225
1419 1 221 218 223 226
1420 2 222 218 223 224
1421 1 222 218 223 225
1422 1 222 218 223 226
1423 3 161 162 167 168
1424 2 161 162 167 169
1425 2 161 162 167 170
1426 2 165 162 167 168
1427 1 165 162 167 169
1428 1 165 162 167 170
1429 2 166 162 167 168
1430 1 166 162 167 169
1431 1 166 162 167 170
1432 2 791 792 797 798
1433 2 791 792 797 799
1434 2 791 792 797 800
1435 1 795 792 797 798
1436 1 795 792 797 799
1437 1 795 792 797 800
1438 1 796 792 797 798
1439 1 796 792 797 799
1440 1 796 792 797 800
1441 1 461 459 460 463
1442 1 461 459 460 464
1443 2 461 459 460 465
1444 1 462 459 460 463
1445 1 462 459 460 464
1446 2 462 459 460 465
1447 2 454 459 460 463
1448 2 454 459 460 464
1449 3 454 459 460 465
1450 1 163 161 162 165
1451 1 163 161 162 166
1452 2 163 161 162 167
1453 1 164 161 162 165
1454 1 164 161 162 166
1455 2 164 161 162 167
1456 2 156 161 162 165
1457 2 156 161 162 166
1458 3 156 161 162 167
1459 1 473 471 472 475
1460 1 473 471 472 476
1461 2 473 471 472 477
1462 1 474 471 472 475
1463 1 474 471 472 476
1464 2 474 471 472 477
1465 2 466 471 472 475
1466 2 466 471 472 476
1467 3 466 471 472 477
1468 1 691 689 690 693
1469 1 691 689 690 694
1470 2 691 689 690 695
1471 1 692 689 690 693
1472 1 692 689 690 694
1473 2 692 689 690 695
1474 2 684 689 690 693
1475 2 684 689 690 694
1476 3 684 689 690 695
1477 3 453 454 459 460
1478 2 453 454 459 461
1479 2 453 454 459 462
1480 2 457 454 459 460
1481 1 457 454 459 461
1482 1 457 454 459 462
1483 2 458 454 459 460
1484 1 458 454 459 461
1485 1 458 454 459 462
1486 3 379 380 385 386
1487 2 379 380 385 387
1488 2 379 380 385 388
1489 2 383 380 385 386
1490 1 383 380 385 387
1491 1 383 380 385 388
1492 2 384 380 385 386
1493 1 384 380 385 387
1494 1 384 380 385 388
1495 1 169 167 168 171
1496 1 169 167 168 172
1497 2 169 167 168 173
1498 1 170 167 168 171
1499 1 170 167 168 172
1500 2 170 167 168 173
1501 2 162 167 168 171
1502 2 162 167 168 172
1503 3 162 167 168 173
1504 3 689 690 695 696
1505 2 689 690 695 697
1506 2 689 690 695 698
1507 2 693 690 695 696
1508 1 693 690 695 697
1509 1 693 690 695 698
1510 2 694 690 695 696
1511 1 694 690 695 697
1512 1 694 690 695 698
1513 3 731 732 737 738
1514 2 731 732 737 739
1515 2 731 732 737 740
1516 2 735 732 737 738
1517 1 735 732 737 739
1518 1 735 732 737 740
1519 2 736 732 737 738
1520 1 736 732 737 739
1521 1 736 732 737 740
1522 3 373 374 379 380
1523 2 373 374 379 381
1524 2 373 374 379 382
1525 2 377 374 379 380
1526 1 377 374 379 381
1527 1 377 374 379 382
1528 2 378 374 379 380
1529 1 378 374 379 381
1530 1 378 374 379 382
1531 1 697 695 696 699
1532 1 697 695 696 700
1533 2 697 695 696 701
1534 1 698 695 696 699
1535 1 698 695 696 700
1536 2 698 695 696 701
1537 2 690 695 696 699
1538 2 690 695 696 700
1539 3 690 695 696 701
1540 3 773 774 779 780
1541 2 773 774 779 781
1542 2 773 774 779 782
1543 2 777 774 779 780
1544 1 777 774 779 781
1545 1 777 774 779 782
1546 2 778 774 779 780
1547 1 778 774 779 781
1548 1 778 774 779 782
1549 1 363 361 362 365
1550 1 363 361 362 366
1551 2 363 361 362 367
1552 1 364 361 362 365
1553 1 364 361 362 366
1554 2 364 361 362 367
1555 2 356 361 362 365
1556 2 356 361 362 366
1557 3 356 361 362 367
1558 1 381 379 380 383
1559 1 381 379 380 384
1560 2 381 379 380 385
1561 1 382 379 380 383
1562 1 382 379 380 384
1563 2 382 379 380 385
1564 2 374 379 380 383
1565 2 374 379 380 384
1566 3 374 379 380 385
1567 3 713 714 719 720
1568 2 713 714 719 721
1569 2 713 714 719 722
1570 2 717 714 719 720
1571 1 717 714 719 721
1572 1 717 714 719 722
1573 2 718 714 719 720
1574 1 718 714 719 721
1575 1 718 714 719 722
1576 3 295 296 301 302
1577 2 295 296 301 303
1578 2 295 296 301 304
1579 2 299 296 301 302
1580 1 299 296 301 303
1581 1 299 296 301 304
1582 2 300 296 301 302
1583 1 300 296 301 303
1584 1 300 296 301 304
1585 1 369 367 368 371
1586 1 369 367 368 372
1587 2 369 367 368 373
1588 1 370 367 368 371
1589 1 370 367 368 372
1590 2 370 367 368 373
1591 2 362 367 368 371
1592 2 362 367 368 372
1593 3 362 367 368 373
1594 1 727 725 726 729
1595 1 727 725 726 730
1596 2 727 725 726 731
1597 1 728 725 726 729
1598 1 728 725 726 730
1599 2 728 725 726 731
1600 2 720 725 726 729
1601 2 720 725 726 730
1602 3 720 725 726 731
1603 3 725 726 731 732
1604 2 725 726 731 733
1605 2 725 726 731 734
1606 2 729 726 731 732
1607 1 729 726 731 733
1608 1 729 726 731 734
1609 2 730 726 731 732
1610 1 730 726 731 733
1611 1 730 726 731 734
1612 1 733 731 732 735
1613 1 733 731 732 736
1614 2 733 731 732 737
1615 1 734 731 732 735
1616 1 734 731 732 736
1617 2 734 731 732 737
1618 2 726 731 732 735
1619 2 726 731 732 736
1620 3 726 731 732 737
1621 1 303 301 302 305
1622 1 303 301 302 306
1623 2 303 301 302 307
1624 1 304 301 302 305
1625 1 304 301 302 306
1626 2 304 301 302 307
1627 2 296 301 302 305
1628 2 296 301 302 306
1629 3 296 301 302 307
1630 3 361 362 367 368
1631 2 361 362 367 369
1632 2 361 362 367 370
1633 2 365 362 367 368
1634 1 365 362 367 369
1635 1 365 362 367 370
1636 2 366 362 367 368
1637 1 366 362 367 369
1638 1 366 362 367 370
1639 1 309 307 308 311
1640 1 309 307 308 312
1641 2 309 307 308 313
1642 1 310 307 308 311
1643 1 310 307 308 312
1644 2 310 307 308 313
1645 2 302 307 308 311
1646 2 302 307 308 312
1647 3 302 307 308 313
1648 1 703 701 702 705
1649 1 703 701 702 706
1650 2 703 701 702 707
1651 1 704 701 702 705
1652 1 704 701 702 706
1653 2 704 701 702 707
1654 2 696 701 702 705
1655 2 696 701 702 706
1656 3 696 701 702 707
1657 1 267 265 266 269
1658 1 267 265 266 270
1659 2 267 265 266 271
1660 1 268 265 266 269
1661 1 268 265 266 270
1662 2 268 265 266 271
1663 2 260 265 266 269
1664 2 260 265 266 270
1665 3 260 265 266 271
1666 1 721 719 720 723
1667 1 721 719 720 724
1668 2 721 719 720 725
1669 1 722 719 720 723
1670 1 722 719 720 724
1671 2 722 719 720 725
1672 2 714 719 720 723
1673 2 714 719 720 724
1674 3 714 719 720 725
1675 3 761 762 767 768
1676 2 761 762 767 769
1677 2 761 762 767 770
1678 2 765 762 767 768
1679 1 765 762 767 769
1680 1 765 762 767 770
1681 2 766 762 767 768
1682 1 766 762 767 769
1683 1 766 762 767 770
1684 3 719 720 725 726
1685 2 719 720 725 727
1686 2 719 720 725 728
1687 2 723 720 725 726
1688 1 723 720 725 727
1689 1 723 720 725 728
1690 2 724 720 725 726
1691 1 724 720 725 727
1692 1 724 720 725 728
1693 3 767 768 773 774
1694 2 767 768 773 775
1695 2 767 768 773 776
1696 2 771 768 773 774
1697 1 771 768 773 775
1698 1 771 768 773 776
1699 2 772 768 773 774
1700 1 772 768 773 775
1701 1 772 768 773 776
1702 1 715 713 714 717
1703 1 715 713 714 718
1704 2 715 713 714 719
1705 1 716 713 714 717
1706 1 716 713 714 718
1707 2 716 713 714 719
1708 2 708 713 714 717
1709 2 708 713 714 718
1710 3 708 713 714 719
1711 3 695 696 701 702
1712 2 695 696 701 703
1713 2 695 696 701 704
1714 2 699 696 701 702
1715 1 699 696 701 703
1716 1 699 696 701 704
1717 2 700 696 701 702
1718 1 700 696 701 703
1719 1 700 696 701 704
1720 3 707 708 713 714
1721 2 707 708 713 715
1722 2 707 708 713 716
1723 2 711 708 713 714
1724 1 711 708 713 715
1725 1 711 708 713 716
1726 2 712 708 713 714
1727 1 712 708 713 715
1728 1 712 708 713 716
1729 3 701 702 707 708
1730 2 701 702 707 709
1731 2 701 702 707 710
1732 2 705 702 707 708
1733 1 705 702 707 709
1734 1 705 702 707 710
1735 2 706 702 707 708
1736 1 706 702 707 709
1737 1 706 702 707 710
1738 1 375 373 374 377
1739 1 375 373 374 378
1740 2 375 373 374 379
1741 1 376 373 374 377
1742 1 376 373 374 378
1743 2 376 373 374 379
1744 2 368 373 374 377
1745 2 368 373 374 378
1746 3 368 373 374 379
1747 3 367 368 373 374
1748 2 367 368 373 375
1749 2 367 368 373 376
1750 2 371 368 373 374
1751 1 371 368 373 375
1752 1 371 368 373 376
1753 2 372 368 373 374
1754 1 372 368 373 375
1755 1 372 368 373 376
1756 1 709 707 708 711
1757 1 709 707 708 712
1758 2 709 707 708 713
1759 1 710 707 708 711
1760 1 710 707 708 712
1761 2 710 707 708 713
1762 2 702 707 708 711
1763 2 702 707 708 712
1764 3 702 707 708 713
1765 1 769 767 768 771
1766 1 769 767 768 772
1767 2 769 767 768 773
1768 1 770 767 768 771
1769 1 770 767 768 772
1770 2 770 767 768 773
1771 2 762 767 768 771
1772 2 762 767 768 772
1773 3 762 767 768 773
1774 3 301 302 307 308
1775 2 301 302 307 309
1776 2 301 302 307 310
1777 2 305 302 307 308
1778 1 305 302 307 309
1779 1 305 302 307 310
1780 2 306 302 307 308
1781 1 306 302 307 309
1782 1 306 302 307 310
1783 1 775 773 774 777
1784 1 775 773 774 778
1785 2 775 773 774 779
1786 1 776 773 774 777
1787 1 776 773 774 778
1788 2 776 773 774 779
1789 2 768 773 774 777
1790 2 768 773 774 778
1791 3 768 773 774 779
1792 1 763 761 762 765
1793 1 763 761 762 766
1794 2 763 761 762 767
1795 1 764 761 762 765
1796 1 764 761 762 766
1797 2 764 761 762 767
1798 2 756 761 762 765
1799 2 756 761 762 766
1800 3 756 761 762 767
1801 1 133 131 132 135
1802 1 133 131 132 136
1803 2 133 131 132 137
1804 1 134 131 132 135
1805 1 134 131 132 136
1806 2 134 131 132 137
1807 2 126 131 132 135
1808 2 126 131 132 136
1809 3 126 131 132 137
1810 3 131 132 137 138
1811 2 131 132 137 139
1812 2 131 132 137 140
1813 2 135 132 137 138
1814 1 135 132 137 139
1815 1 135 132 137 140
1816 2 136 132 137 138
1817 1 136 132 137 139
1818 1 136 132 137 140
1819 1 139 137 138 141
1820 1 139 137 138 142
1821 2 139 137 138 143
1822 1 140 137 138 141
1823 1 140 137 138 142
1824 2 140 137 138 143
1825 2 132 137 138 141
1826 2 132 137 138 142
1827 3 132 137 138 143
1828 3 137 138 143 144
1829 2 137 138 143 145
1830 2 137 138 143 146
1831 2 141 138 143 144
1832 1 141 138 143 145
1833 1 141 138 143 146
1834 2 142 138 143 144
1835 1 142 138 143 145
1836 1 142 138 143 146
1837 1 145 143 144 147
1838 1 145 143 144 148
1839 2 145 143 144 149
1840 1 146 143 144 147
1841 1 146 143 144 148
1842 2 146 143 144 149
1843 2 138 143 144 147
1844 2 138 143 144 148
1845 3 138 143 144 149
1846 3 143 144 149 150
1847 2 143 144 149 151
1848 2 143 144 149 152
1849 2 147 144 149 150
1850 1 147 144 149 151
1851 1 147 144 149 152
1852 2 148 144 149 150
1853 1 148 144 149 151
1854 1 148 144 149 152
1855 1 479 477 478 481
1856 1 479 477 478 482
1857 2 479 477 478 483
1858 1 480 477 478 481
1859 1 480 477 478 482
1860 2 480 477 478 483
1861 2 472 477 478 481
1862 2 472 477 478 482
1863 3 472 477 478 483
1864 1 551 549 550 553
1865 1 551 549 550 554
1866 2 551 549 550 555
1867 1 552 549 550 553
1868 1 552 549 550 554
1869 2 552 549 550 555
1870 2 544 549 550 553
1871 2 544 549 550 554
1872 3 544 549 550 555
1873 3 543 544 549 550
1874 2 543 544 549 551
1875 2 543 544 549 552
1876 2 547 544 549 550
1877 1 547 544 549 551
1878 1 547 544 549 552
1879 2 548 544 549 550
1880 1 548 544 549 551
1881 1 548 544 549 552
1882 1 151 149 150 153
1883 1 151 149 150 154
1884 2 151 149 150 155
1885 1 152 149 150 153
1886 1 152 149 150 154
1887 2 152 149 150 155
1888 2 144 149 150 153
1889 2 144 149 150 154
1890 3 144 149 150 155
1891 3 549 550 555 556
1892 2 549 550 555 557
1893 2 549 550 555 558
1894 2 553 550 555 556
1895 1 553 550 555 557
1896 1 553 550 555 558
1897 2 554 550 555 556
1898 1 554 550 555 557
1899 1 554 550 555 558
1900 3 149 150 155 156
1901 2 149 150 155 157
1902 2 149 150 155 158
1903 2 153 150 155 156
1904 1 153 150 155 157
1905 1 153 150 155 158
1906 2 154 150 155 156
1907 1 154 150 155 157
1908 1 154 150 155 158
1909 2 402 401 405 406
1910 1 402 401 405 407
1911 1 402 401 405 408
1912 2 403 401 405 406
1913 1 403 401 405 407
1914 1 403 401 405 408
1915 2 404 401 405 406
1916 1 404 401 405 407
1917 1 404 401 405 408
1918 1 157 155 156 159
1919 1 157 155 156 160
1920 2 157 155 156 161
1921 1 158 155 156 159
1922 1 158 155 156 160
1923 2 158 155 156 161
1924 2 150 155 156 159
1925 2 150 155 156 160
1926 3 150 155 156 161
1927 3 5 6 11 12
1928 2 5 6 11 13
1929 2 5 6 11 14
1930 2 9 6 11 12
1931 1 9 6 11 13
1932 1 9 6 11 14
1933 2 10 6 11 12
1934 1 10 6 11 13
1935 1 10 6 11 14
1936 3 125 126 131 132
1937 2 125 126 131 133
1938 2 125 126 131 134
1939 2 129 126 131 132
1940 1 129 126 131 133
1941 1 129 126 131 134
1942 2 130 126 131 132
1943 1 130 126 131 133
1944 1 130 126 131 134
1945 1 557 555 556 559
1946 1 557 555 556 560
1947 2 557 555 556 561
1948 1 558 555 556 559
1949 1 558 555 556 560
1950 2 558 555 556 561
1951 2 550 555 556 559
1952 2 550 555 556 560
1953 3 550 555 556 561
1954 2 602 601 605 606
1955 1 602 601 605 607
1956 1 602 601 605 608
1957 2 603 601 605 606
1958 1 603 601 605 607
1959 1 603 601 605 608
1960 2 604 601 605 606
1961 1 604 601 605 607
1962 1 604 601 605 608
1963 3 477 478 483 484
1964 2 477 478 483 485
1965 2 477 478 483 486
1966 2 481 478 483 484
1967 1 481 478 483 485
1968 1 481 478 483 486
1969 2 482 478 483 484
1970 1 482 478 483 485
1971 1 482 478 483 486
1972 2 2 1 5 6
1973 1 2 1 5 7
1974 1 2 1 5 8
1975 2 3 1 5 6
1976 1 3 1 5 7
1977 1 3 1 5 8
1978 2 4 1 5 6
1979 1 4 1 5 7
1980 1 4 1 5 8
1981 1 7 5 6 9
1982 1 7 5 6 10
1983 2 7 5 6 11
1984 1 8 5 6 9
1985 1 8 5 6 10
1986 2 8 5 6 11
1987 2 1 5 6 9
1988 2 1 5 6 10
1989 3 1 5 6 11
1990 3 471 472 477 478
1991 2 471 472 477 479
1992 2 471 472 477 480
1993 2 475 472 477 478
1994 1 475 472 477 479
1995 1 475 472 477 480
1996 2 476 472 477 478
1997 1 476 472 477 479
1998 1 476 472 477 480
1999 1 607 605 606 609
2000 1 607 605 606 610
2001 2 607 605 606 611
2002 1 608 605 606 609
2003 1 608 605 606 610
2004 2 608 605 606 611
2005 2 601 605 606 609
2006 2 601 605 606 610
2007 3 601 605 606 611
2008 2 191 192 197 198
2009 2 191 192 197 199
2010 2 191 192 197 200
2011 1 195 192 197 198
2012 1 195 192 197 199
2013 1 195 192 197 200
2014 1 196 192 197 198
2015 1 196 192 197 199
2016 1 196 192 197 200
2017 3 155 156 161 162
2018 2 155 156 161 163
2019 2 155 156 161 164
2020 2 159 156 161 162
2021 1 159 156 161 163
2022 1 159 156 161 164
2023 2 160 156 161 162
2024 1 160 156 161 163
2025 1 160 156 161 164
2026 1 13 11 12 15
2027 1 13 11 12 16
2028 2 13 11 12 17
2029 1 14 11 12 15
2030 1 14 11 12 16
2031 2 14 11 12 17
2032 2 6 11 12 15
2033 2 6 11 12 16
2034 3 6 11 12 17
2035 1 649 647 648 651
2036 1 649 647 648 652
2037 2 649 647 648 653
2038 1 650 647 648 651
2039 1 650 647 648 652
2040 2 650 647 648 653
2041 2 642 647 648 651
2042 2 642 647 648 652
2043 3 642 647 648 653
2044 1 407 405 406 409
2045 1 407 405 406 410
2046 2 407 405 406 411
2047 1 408 405 406 409
2048 1 408 405 406 410
2049 2 408 405 406 411
2050 2 401 405 406 409
2051 2 401 405 406 410
2052 3 401 405 406 411
2053 1 419 417 418 421
2054 1 419 417 418 422
2055 2 419 417 418 423
2056 1 420 417 418 421
2057 1 420 417 418 422
2058 2 420 417 418 423
2059 2 412 417 418 421
2060 2 412 417 418 422
2061 3 412 417 418 423
2062 3 307 308 313 314
2063 2 307 308 313 315
2064 2 307 308 313 316
2065 2 311 308 313 314
2066 1 311 308 313 315
2067 1 311 308 313 316
2068 2 312 308 313 314
2069 1 312 308 313 315
2070 1 312 308 313 316
2071 3 555 556 561 562
2072 2 555 556 561 563
2073 2 555 556 561 564
2074 2 559 556 561 562
2075 1 559 556 561 563
2076 1 559 556 561 564
2077 2 560 556 561 562
2078 1 560 556 561 563
2079 1 560 556 561 564
2080 3 561 562 567 568
2081 2 561 562 567 569
2082 2 561 562 567 570
2083 2 565 562 567 568
2084 1 565 562 567 569
2085 1 565 562 567 570
2086 2 566 562 567 568
2087 1 566 562 567 569
2088 1 566 562 567 570
2089 3 567 568 573 574
2090 2 567 568 573 575
2091 2 567 568 573 576
2092 2 571 568 573 574
2093 1 571 568 573 575
2094 1 571 568 573 576
2095 2 572 568 573 574
2096 1 572 568 573 575
2097 1 572 568 573 576
2098 3 489 490 495 496
2099 2 489 490 495 497
2100 2 489 490 495 498
2101 2 493 490 495 496
2102 1 493 490 495 497
2103 1 493 490 495 498
2104 2 494 490 495 496
2105 1 494 490 495 497
2106 1 494 490 495 498
2107 3 423 424 429 430
2108 2 423 424 429 431
2109 2 423 424 429 432
2110 2 427 424 429 430
2111 1 427 424 429 431
2112 1 427 424 429 432
2113 2 428 424 429 430
2114 1 428 424 429 431
2115 1 428 424 429 432
2116 3 119 120 125 126
2117 2 119 120 125 127
2118 2 119 120 125 128
2119 2 123 120 125 126
2120 1 123 120 125 127
2121 1 123 120 125 128
2122 2 124 120 125 126
2123 1 124 120 125 127
2124 1 124 120 125 128
2125 1 127 125 126 129
2126 1 127 125 126 130
2127 2 127 125 126 131
2128 1 128 125 126 129
2129 1 128 125 126 130
2130 2 128 125 126 131
2131 2 120 125 126 129
2132 2 120 125 126 130
2133 3 120 125 126 131
2134 1 497 495 496 499
2135 1 497 495 496 500
2136 2 497 495 496 501
2137 1 498 495 496 499
2138 1 498 495 496 500
2139 2 498 495 496 501
2140 2 490 495 496 499
2141 2 490 495 496 500
2142 3 490 495 496 501
2143 3 411 412 417 418
2144 2 411 412 417 419
2145 2 411 412 417 420
2146 2 415 412 417 418
2147 1 415 412 417 419
2148 1 415 412 417 420
2149 2 416 412 417 418
2150 1 416 412 417 419
2151 1 416 412 417 420
2152 3 495 496 501 502
2153 2 495 496 501 503
2154 2 495 496 501 504
2155 2 499 496 501 502
2156 1 499 496 501 503
2157 1 499 496 501 504
2158 2 500 496 501 502
2159 1 500 496 501 503
2160 1 500 496 501 504
2161 1 485 483 484 487
2162 1 485 483 484 488
2163 2 485 483 484 489
2164 1 486 483 484 487
2165 1 486 483 484 488
2166 2 486 483 484 489
2167 2 478 483 484 487
2168 2 478 483 484 488
2169 3 478 483 484 489
2170 1 425 423 424 427
2171 1 425 423 424 428
2172 2 425 423 424 429
2173 1 426 423 424 427
2174 1 426 423 424 428
2175 2 426 423 424 429
2176 2 418 423 424 427
2177 2 418 423 424 428
2178 3 418 423 424 429
2179 1 503 501 502 505
2180 1 503 501 502 506
2181 2 503 501 502 507
2182 1 504 501 502 505
2183 1 504 501 502 506
2184 2 504 501 502 507
2185 2 496 501 502 505
2186 2 496 501 502 506
2187 3 496 501 502 507
2188 1 327 325 326 329
2189 1 327 325 326 330
2190 2 327 325 326 331
2191 1 328 325 326 329
2192 1 328 325 326 330
2193 2 328 325 326 331
2194 2 320 325 326 329
2195 2 320 325 326 330
2196 3 320 325 326 331
2197 1 575 573 574 577
2198 1 575 573 574 578
2199 2 575 573 574 579
2200 1 576 573 574 577
2201 1 576 573 574 578
2202 2 576 573 574 579
2203 2 568 573 574 577
2204 2 568 573 574 578
2205 3 568 573 574 579
2206 3 483 484 489 490
2207 2 483 484 489 491
2208 2 483 484 489 492
2209 2 487 484 489 490
2210 1 487 484 489 491
2211 1 487 484 489 492
2212 2 488 484 489 490
2213 1 488 484 489 491
2214 1 488 484 489 492
2215 1 431 429 430 433
2216 1 431 429 430 434
2217 2 431 429 430 435
2218 1 432 429 430 433
2219 1 432 429 430 434
2220 2 432 429 430 435
2221 2 424 429 430 433
2222 2 424 429 430 434
2223 3 424 429 430 435
2224 1 563 561 562 565
2225 1 563 561 562 566
2226 2 563 561 562 567
2227 1 564 561 562 565
2228 1 564 561 562 566
2229 2 564 561 562 567
2230 2 556 561 562 565
2231 2 556 561 562 566
2232 3 556 561 562 567
2233 1 321 319 320 323
2234 1 321 319 320 324
2235 2 321 319 320 325
2236 1 322 319 320 323
2237 1 322 319 320 324
2238 2 322 319 320 325
2239 2 314 319 320 323
2240 2 314 319 320 324
2241 3 314 319 320 325
2242 1 315 313 314 317
2243 1 315 313 314 318
2244 2 315 313 314 319
2245 1 316 313 314 317
2246 1 316 313 314 318
2247 2 316 313 314 319
2248 2 308 313 314 317
2249 2 308 313 314 318
2250 3 308 313 314 319
2251 3 313 314 319 320
2252 2 313 314 319 321
2253 2 313 314 319 322
2254 2 317 314 319 320
2255 1 317 314 319 321
2256 1 317 314 319 322
2257 2 318 314 319 320
2258 1 318 314 319 321
2259 1 318 314 319 322
2260 3 355 356 361 362
2261 2 355 356 361 363
2262 2 355 356 361 364
2263 2 359 356 361 362
2264 1 359 356 361 363
2265 1 359 356 361 364
2266 2 360 356 361 362
2267 1 360 356 361 363
2268 1 360 356 361 364
2269 3 573 574 579 580
2270 2 573 574 579 581
2271 2 573 574 579 582
2272 2 577 574 579 580
2273 1 577 574 579 581
2274 1 577 574 579 582
2275 2 578 574 579 580
2276 1 578 574 579 581
2277 1 578 574 579 582
2278 3 429 430 435 436
2279 2 429 430 435 437
2280 2 429 430 435 438
2281 2 433 430 435 436
2282 1 433 430 435 437
2283 1 433 430 435 438
2284 2 434 430 435 436
2285 1 434 430 435 437
2286 1 434 430 435 438
2287 3 417 418 423 424
2288 2 417 418 423 425
2289 2 417 418 423 426
2290 2 421 418 423 424
2291 1 421 418 423 425
2292 1 421 418 423 426
2293 2 422 418 423 424
2294 1 422 418 423 425
2295 1 422 418 423 426
2296 3 319 320 325 326
2297 2 319 320 325 327
2298 2 319 320 325 328
2299 2 323 320 325 326
2300 1 323 320 325 327
2301 1 323 320 325 328
2302 2 324 320 325 326
2303 1 324 320 325 327
2304 1 324 320 325 328
2305 1 569 567 568 571
2306 1 569 567 568 572
2307 2 569 567 568 573
2308 1 570 567 568 571
2309 1 570 567 568 572
2310 2 570 567 568 573
2311 2 562 567 568 571
2312 2 562 567 568 572
2313 3 562 567 568 573
2314 1 491 489 490 493
2315 1 491 489 490 494
2316 2 491 489 490 495
2317 1 492 489 490 493
2318 1 492 489 490 494
2319 2 492 489 490 495
2320 2 484 489 490 493
2321 2 484 489 490 494
2322 3 484 489 490 495
2323 3 405 406 411 412
2324 2 405 406 411 413
2325 2 405 406 411 414
2326 2 409 406 411 412
2327 1 409 406 411 413
2328 1 409 406 411 414
2329 2 410 406 411 412
2330 1 410 406 411 413
2331 1 410 406 411 414
2332 1 413 411 412 415
2333 1 413 411 412 416
2334 2 413 411 412 417
2335 1 414 411 412 415
2336 1 414 411 412 416
2337 2 414 411 412 417
2338 2 406 411 412 415
2339 2 406 411 412 416
2340 3 406 411 412 417
